! RIJONX B3LYP def2-SVP D3BJ TIGHTSCF Opt
%pal
nprocs 6
end

* xyz 0 1
C     -1.542124   -3.912666    0.707674
C     -0.223742   -3.812667    0.275043
C      0.221111   -2.644223   -0.351148
C     -0.636200   -1.544687   -0.540296
C     -1.969476   -1.681842   -0.122714
C     -2.416475   -2.849385    0.504720
P     -0.038806   -0.054266   -1.415456
C     -0.958517    1.332816   -0.691762
C     -1.291523    2.425899   -1.490339
C     -1.991089    3.490684   -0.926389
C     -2.338858    3.440498    0.416564
C     -1.969415    2.322605    1.142697
N     -1.291519    1.276410    0.621680
C      1.584577    0.227380   -0.650991
C      1.811785    0.265684    0.722928
C      3.106310    0.479750    1.190392
C      4.139427    0.648527    0.278542
C      3.832943    0.595083   -1.069746
N      2.587954    0.388280   -1.552183
H     -1.890066   -4.820102    1.193321
H      0.460978   -4.644625    0.416281
H      1.252830   -2.607754   -0.697597
H     -2.684107   -0.876036   -0.275148
H     -3.450573   -2.924514    0.830154
H     -1.009696    2.459144   -2.538626
H     -2.257983    4.351568   -1.532637
H     -2.881912    4.252603    0.886321
H     -2.215539    2.233697    2.196925
H      0.996624    0.130363    1.427868
H      3.301062    0.513773    2.258255
H      5.157599    0.817447    0.609595
H      4.604423    0.720557   -1.823931
*