! RIJONX B3LYP def2-SVP D3BJ TIGHTSCF Opt
%pal
nprocs 6
end

* xyz 0 1
C     -1.279596    4.723808    1.550721
C     -0.356288    3.920945    2.216479
C      0.306080    2.901389    1.530687
C      0.046140    2.663062    0.169986
C     -0.877151    3.491291   -0.489178
C     -1.538649    4.510897    0.198465
C      0.778650    1.581586   -0.583351
P      0.002994    0.010120   -0.057405
C      0.938399   -1.197124   -1.065049
C      2.293548   -1.301089   -0.412026
C      2.472319   -2.035958    0.772831
C      3.734065   -2.150285    1.358885
C      4.836936   -1.541495    0.764434
C      4.680342   -0.821470   -0.417969
C      3.418846   -0.705834   -1.005577
C     -1.580587    0.077536   -0.971457
C     -2.294029   -1.207413   -0.634436
C     -2.381608   -2.243451   -1.578831
C     -3.063578   -3.424929   -1.280406
C     -3.675897   -3.583683   -0.039077
C     -3.611082   -2.560563    0.903973
C     -2.930004   -1.378748    0.607359
H     -1.795133    5.516860    2.085531
H     -0.150224    4.086557    3.270521
H      1.026031    2.282886    2.063997
H     -1.088975    3.345821   -1.545862
H     -2.255331    5.140590   -0.322021
H      0.706753    1.732523   -1.665842
H      1.840124    1.629838   -0.320524
H      1.023848   -0.880503   -2.110127
H      0.473198   -2.187943   -1.064977
H      1.619927   -2.518350    1.248249
H      3.853774   -2.714842    2.279668
H      5.818634   -1.630568    1.221669
H      5.541750   -0.350763   -0.884299
H      3.319223   -0.144821   -1.931834
H     -2.206939    0.918249   -0.656785
H     -1.427080    0.175639   -2.051527
H     -1.915996   -2.137032   -2.555813
H     -3.118499   -4.221257   -2.017899
H     -4.205820   -4.503514    0.192923
H     -4.090130   -2.680570    1.871964
H     -2.888984   -0.587392    1.353930
*