! RIJCOSX M062X def2-TZVP D3ZERO NormalSCF
%pal
nprocs 6
end

* xyz 0 1
  C           2.71054881846791     -0.11245450271681      0.70940337994443
  C           1.72121284267574      0.41632848489327     -0.35150078700420
  P          -0.01818737417871      0.00545608444698      0.13188176583863
  O          -0.22794030254757      0.05951107811269      1.63884645605387
  C          -0.37518453223785     -1.67163612644857     -0.56733486544573
  C          -1.54061283434504     -2.33400843216796      0.19866357078401
  C          -2.83193881982764     -1.70070798743794     -0.07789265911485
  N          -3.83217851308873     -1.14513813430165     -0.32992835959356
  C          -1.11036542406791      1.19563891063327     -0.77294524837285
  C          -1.30543956773576      2.48088913991626      0.06026321264111
  C          -0.09316422732712      3.29996630593542      0.12759044248488
  N           0.90992690303680      3.90475494656640      0.15434584993368
  C           2.82067540836451     -1.57285998127599      0.70176199420522
  N           2.85631986884747     -2.74300865870245      0.65533248615792
  H           3.71856955954340      0.32336671813416      0.54900514168142
  H           2.35958844898411      0.20503762345466      1.71489019379407
  H           1.79640041403295      1.52179866911622     -0.38377789291734
  H           1.94627029691376      0.02663696965942     -1.36593664332264
  H          -0.57308157129439     -1.60675331680294     -1.65744130722272
  H           0.53658808650057     -2.28453688101026     -0.42012170499848
  H          -1.34068214294630     -2.25679456423303      1.28907289387155
  H          -1.60839179871652     -3.41165453559044     -0.05803516816728
  H          -0.70377869060874      1.40899377893045     -1.78332019452237
  H          -2.09533934929142      0.70241852857801     -0.89627763898486
  H          -2.12878322955433      3.09370206902557     -0.36199537413931
  H          -1.59103026959918      2.19505281328527      1.09545145641541
*