! RI BP86 def2-SVP D3BJ TIGHTSCF Opt
%pal
nprocs 6
end

* xyz 0 1
C      4.126202   -0.857016   -0.367542
C      2.793394   -0.367339   -0.914098
C      1.626420   -1.148142   -0.310123
P     -0.005576   -0.618089   -1.003922
C     -1.126551   -1.670276    0.026631
C     -2.602830   -1.390797   -0.254012
C     -3.502469   -2.303884    0.565626
C     -0.228930    1.032516   -0.270599
C     -0.536256    2.101792   -1.125069
C     -0.719604    3.392669   -0.622461
C     -0.598013    3.632456    0.743312
C     -0.293381    2.582099    1.605104
C     -0.110128    1.290954    1.101295
H      4.949443   -0.288010   -0.810782
H      4.280932   -1.915394   -0.600370
H      4.173751   -0.732729    0.719039
H      2.797724   -0.471413   -2.006180
H      2.696260    0.702983   -0.696522
H      1.635600   -1.055302    0.781070
H      1.752287   -2.213657   -0.536301
H     -0.914331   -1.538927    1.092988
H     -0.908283   -2.718266   -0.210849
H     -2.823402   -1.537528   -1.318583
H     -2.850783   -0.349080   -0.017987
H     -3.337325   -2.157292    1.637822
H     -3.314390   -3.355937    0.328720
H     -4.554470   -2.090541    0.351772
H     -0.636521    1.939362   -2.196550
H     -0.957196    4.208294   -1.300136
H     -0.740405    4.635928    1.135124
H     -0.197700    2.765742    2.672024
H      0.126528    0.494824    1.801561
*