! RI BP86 def2-SVP D3BJ TIGHTSCF Opt
%pal
nprocs 6
end

* xyz 0 1
C     -3.161816   -3.362835   -0.481392
C     -2.080328   -2.934308   -1.248557
C     -1.246645   -1.917326   -0.778780
C     -1.487768   -1.316966    0.465764
C     -2.579313   -1.761942    1.228318
C     -3.411391   -2.777824    0.757712
P     -0.459495    0.011545    1.120599
O     -0.347888   -0.081661    2.633658
C     -1.183507    1.586063    0.623618
C     -0.850001    2.739078    1.352294
C     -1.370539    3.983373    0.996531
C     -2.233205    4.090507   -0.091629
C     -2.577688    2.954539   -0.821488
C     -2.057130    1.708264   -0.466640
C      1.172415   -0.119262    0.354497
C      1.529291    0.603242   -0.793055
C      2.801735    0.459296   -1.354307
C      3.736301   -0.407471   -0.775457
C      3.390060   -1.129364    0.371163
C      2.117638   -0.984018    0.930023
C      5.071953   -0.525615   -1.408630
O      5.439603    0.061835   -2.409216
O      5.884963   -1.377373   -0.759728
H     -3.808166   -4.156652   -0.847212
H     -1.884286   -3.395848   -2.213409
H     -0.409646   -1.602798   -1.396513
H     -2.775740   -1.313129    2.201375
H     -4.251181   -3.114415    1.360492
H     -0.182403    2.660639    2.209544
H     -1.106188    4.867137    1.571816
H     -2.642114    5.059280   -0.367316
H     -3.256947    3.039034   -1.666390
H     -2.345811    0.838048   -1.050424
H      0.826215    1.287201   -1.262751
H      3.062964    1.029794   -2.244257
H      4.101633   -1.804556    0.840733
H      1.858059   -1.544109    1.828293
H      6.716367   -1.351406   -1.278148
*