! RIJCOSX M062X def2-TZVP D3ZERO NormalSCF
%pal
nprocs 6
end

* xyz 0 1
  C           2.96962690593335     -1.48914170239945      1.37157092305045
  C           1.70355283807225     -1.13012179929498      0.88506938839614
  C           1.55554767150405     -0.65465712510330     -0.43364298617123
  C           2.68367893188170     -0.56388544538942     -1.27593250677440
  C           3.95268581078568     -0.92110907395503     -0.80150335717860
  C           4.07742686098125     -1.37491612276745      0.51983162101687
  F           5.29343889008743     -1.72255128410499      0.97990102730135
  P          -0.04510741499711     -0.14408848625520     -1.15761873966952
  O          -0.10573706054068     -0.33134701712976     -2.66360917745209
  C          -1.32000756147685     -1.10370469106831     -0.26268825682255
  C          -1.78325533865002     -2.27702939422575     -0.89393147968810
  C          -2.74661160300361     -3.08255034798653     -0.27218013611543
  C          -3.24243593094933     -2.69703183107860      0.98194804761578
  C          -2.81010879562507     -1.52693829554300      1.62237112700472
  C          -1.84683596175133     -0.72712572036298      0.98952758651504
  F          -4.16841336077107     -3.46594991505645      1.58404812680748
  C          -0.28606709198185      1.59388758903162     -0.63970318077396
  C          -1.05019127372833      2.40763691488784     -1.50210180556893
  C          -1.30220118244242      3.74639038525872     -1.17417049789083
  C          -0.77707053564066      4.25998275506823      0.02073843737023
  C          -0.00070955689987      3.47634687847636      0.88627943845941
  C           0.24696739252073      2.13786486996684      0.54656056372547
  F          -1.01525134157864      5.54528661220774      0.34097164808412
  H           3.11113500822835     -1.86729467255039      2.39416893430712
  H           0.82291918677443     -1.24087647344704      1.53627563603994
  H           2.54708106251172     -0.22512440998221     -2.31455235707038
  H           4.84684035733111     -0.86281163960829     -1.43875904587291
  H          -1.38730432296759     -2.53787552133932     -1.88754309621959
  H          -3.12650025232380     -4.00014772881066     -0.74409519279136
  H          -3.24026124786138     -1.25426968129010      2.59670908699657
  H          -1.51778075571589      0.20722109250777      1.46975712423982
  H          -1.42985121515789      1.97746446302549     -2.44175671612128
  H          -1.89214640004279      4.40240823073278     -1.83038543735612
  H           0.40634992173720      3.92611804902573      1.80321223585767
  H           0.87659736575693      1.51994153856010      1.20523401674909
*