! RI BP86 def2-SVP D3BJ TIGHTSCF Opt
%pal
nprocs 6
end

* xyz 0 1
C      4.347487   -1.500709    0.366468
C      3.110497   -2.381526    0.490950
C      1.950506   -1.851809   -0.351575
C      1.610596   -0.389510   -0.005306
C      2.874450    0.482624   -0.148946
C      4.029911   -0.047849    0.698162
P      0.253404    0.256272   -1.097790
C     -1.208829   -0.817736   -0.695416
C     -1.589000   -0.902979    0.787786
C     -2.767229   -1.852885    1.009128
C     -3.973497   -1.459863    0.163114
C     -3.610642   -1.357249   -1.314205
C     -2.431140   -0.412050   -1.541034
C     -0.195720    1.879957   -0.420147
C     -0.666112    2.854679   -1.315217
C     -1.028082    4.129635   -0.871618
C     -0.922907    4.452726    0.477399
C     -0.455708    3.501442    1.379542
C     -0.093985    2.226204    0.933054
H      5.133202   -1.869655    1.035203
H      4.740764   -1.565038   -0.655530
H      3.353979   -3.403685    0.179633
H      2.802282   -2.433340    1.542522
H      1.084436   -2.502180   -0.184136
H      2.210573   -1.942994   -1.414767
H      1.290255   -0.359384    1.041202
H      2.672889    1.517376    0.151826
H      3.193261    0.521397   -1.199559
H      3.772759    0.038629    1.761045
H      4.920142    0.569767    0.533837
H     -0.923486   -1.825930   -1.022691
H     -1.868140    0.083212    1.175197
H     -0.745803   -1.255375    1.391093
H     -2.462450   -2.876871    0.760225
H     -3.045774   -1.851744    2.069061
H     -4.773961   -2.196163    0.296576
H     -4.364467   -0.495664    0.510713
H     -4.478697   -1.005487   -1.883128
H     -3.358986   -2.353152   -1.699166
H     -2.748378    0.609165   -1.294084
H     -2.178887   -0.413422   -2.609084
H     -0.755431    2.629425   -2.376523
H     -1.389816    4.867450   -1.582684
H     -1.203117    5.443416    0.824632
H     -0.371544    3.749125    2.434457
H      0.260395    1.511748    1.669778
*