! RIJCOSX M062X def2-TZVP D3ZERO NormalSCF
%pal
nprocs 6
end

* xyz 0 1
  C          -1.29021962962827      3.86457762320337      0.07100960299172
  C          -1.13071482794957      2.71572503086026     -0.71626043633471
  C          -0.18819415845123      1.72057143824686     -0.37151418125362
  C           0.61227275346705      1.91185069129894      0.77492423382250
  C           0.47393029157161      3.06352564703842      1.56524346179826
  C          -0.47948629268589      4.02422559557609      1.20389952336333
  F          -0.61683955585107      5.13166712765769      1.95911978784700
  P          -0.07943602975509      0.23664947278127     -1.47367493315270
  C           1.45905146865551     -0.56343656353345     -0.82629300158894
  C           2.68944475154520     -0.13371676250788     -1.37304362660560
  C           3.90564531481823     -0.66756713867178     -0.92517595757193
  C           3.88282250808393     -1.65811367942357      0.06705788932185
  C           2.67953732569224     -2.11774927905106      0.61780657969355
  C           1.47041392071665     -1.56361231763986      0.16905919655622
  F           5.04690162310628     -2.18300464229993      0.49752309079574
  C          -1.37851318899198     -0.85061319603276     -0.72736548665306
  C          -2.02502422071923     -0.58252091264572      0.49785315478463
  C          -2.99826998765502     -1.45824655558305      1.00435799796022
  C          -3.31717212849225     -2.61251310582331      0.27757862177937
  C          -2.69434877061743     -2.90695508819803     -0.94374487718498
  C          -1.73475641058864     -2.01591276690246     -1.44355107493766
  F          -4.24830167082063     -3.45862689181610      0.76042163807449
  H          -2.02253436600668      4.64394609701404     -0.18450395180171
  H          -1.75246664479732      2.58718867710019     -1.61689689722935
  H           1.35452329844884      1.15008254926774      1.05654087215965
  H           1.09355736754859      3.22655411895886      2.45900169282654
  H           2.69471896029037      0.63635947913386     -2.16121228324793
  H           4.86962318395326     -0.33809466642500     -1.33892282930055
  H           2.70319700508668     -2.89923509065677      1.39115682608256
  H           0.52209957482703     -1.91435742108512      0.60281482494344
  H          -1.76472706450938      0.32185659813066      1.06785701017611
  H          -3.51152136587306     -1.26032023369796      1.95660230053963
  H          -2.97670602702483     -3.81911774369395     -1.48894171938575
  H          -1.24850700739394     -2.23106909058052     -2.40872404926832
*