! RIJCOSX M062X def2-TZVP D3ZERO NormalSCF
%pal
nprocs 6
end

* xyz 0 1
  C          -1.32073542761707      4.94239528981315      1.33482249559325
  C          -0.51670436494956      4.14812092275357      2.17087967143384
  C           0.18596613444604      3.05435835533748      1.64423792693734
  C           0.10457079469106      2.73544203456762      0.27018736057566
  C          -0.70938632971792      3.53783904875992     -0.55700288161374
  C          -1.41455984920988      4.63310134734449     -0.03175898771199
  C           0.81453550567132      1.52526865002764     -0.27748618412041
  P          -0.02332432256119     -0.05241183320855      0.32877161923391
  C           0.88239252953244     -1.30185531718600     -0.75693761274326
  C           2.32393324992678     -1.41135205354954     -0.33480301961359
  C           2.66734967442857     -2.01881440521485      0.89376825846501
  C           4.00291217058803     -2.07604636238921      1.31848013632214
  C           5.02263440359418     -1.52124209251999      0.52557509188013
  C           4.69425275123504     -0.90980473445249     -0.69524620405725
  C           3.35625489394863     -0.85433062528638     -1.11879289164475
  C          -1.63167600519185      0.07472636435149     -0.65065841656245
  C          -2.40506028546884     -1.21404247362510     -0.55356991698438
  C          -2.48020466714884     -2.10105696757819     -1.64822015411385
  C          -3.15392768807517     -3.32842083348854     -1.53754177943442
  C          -3.76214022676579     -3.69219060657160     -0.32519175972942
  C          -3.69094910910296     -2.81931294424373      0.77450057375260
  C          -3.01664364483782     -1.59448614836292      0.66193978371508
  H          -1.87217834436115      5.80059430267734      1.74826335619280
  H          -0.43686234923511      4.38284808237646      3.24363555366891
  H           0.80681994741487      2.42854475973321      2.30473747425390
  H          -0.78566918514993      3.29976784964900     -1.63009954561297
  H          -2.04062658911933      5.24898338372879     -0.69578805237601
  H           0.83934681601153      1.54115449602134     -1.38805659042551
  H           1.86396934045857      1.47221702103554      0.08143086889385
  H           0.79658827775314     -1.01234299795459     -1.82611812066093
  H           0.34648649312391     -2.26561545102544     -0.62738976445749
  H           1.87003846246493     -2.44564008202569      1.52260937898997
  H           4.25070850067521     -2.55764645501701      2.27708382031641
  H           6.07067229976542     -1.56628001641792      0.85889554955962
  H           5.48496174970379     -0.47295797680119     -1.32466467188929
  H           3.10398022107354     -0.37431124646284     -2.07799512696164
  H          -2.19513823659738      0.92271264328301     -0.20768555438298
  H          -1.41283491005612      0.33312414005490     -1.70873187452113
  H          -2.00534235511227     -1.81994606085633     -2.60191127824346
  H          -3.20462325177545     -4.00397225550557     -2.40546606920971
  H          -4.29121554267985     -4.65331304055890     -0.23673979338259
  H          -4.16480618393159     -3.09585088505566      1.72909267822905
  H          -2.95376434784193     -0.91795482615672      1.52894465243977
*