! RIJCOSX M062X def2-TZVP D3ZERO NormalSCF
%pal
nprocs 6
end

* xyz 0 1
  C           0.16311418812446      2.69301195350375     -0.93085392938382
  C          -0.56454704918702      1.54277340472109     -0.21775453602346
  C          -0.72612955629062      1.78676320857503      1.28975800175715
  P           0.24710361635423     -0.08463130549707     -0.68407693667642
  O           0.96989180831475     -0.00969217873514     -2.02520453175436
  C          -1.11725138981128     -1.35520042699463     -0.73136609551047
  C          -1.93291776541871     -1.49423786401657      0.55950433126252
  C          -1.98580079731858     -1.09751301029447     -1.97196333590630
  C           1.40386493823034     -0.57588203501805      0.69597296237057
  C           2.59868302615438      0.39260396481586      0.68387947377867
  C           1.86435678978145     -2.02743670266558      0.48634809538767
  H           0.35708311505277      2.43488525860828     -1.98946513771958
  H          -0.44070771466865      3.62309349733604     -0.88408198688650
  H           1.14381796770459      2.90365125576640     -0.45730521750677
  H          -1.57787388044760      1.44978796488917     -0.67057394708199
  H           0.25720469377332      1.91742616379132      1.78579761765942
  H          -1.30633869735799      2.71682241888585      1.46667657578789
  H          -1.25773946251584      0.96290668109978      1.80464766990979
  H          -0.55208833449264     -2.29711670099965     -0.90737296770897
  H          -1.29504476584581     -1.67385677720344      1.44888349330211
  H          -2.54194035857819     -0.58732774221480      0.75367443883072
  H          -2.63931573138494     -2.34739555925359      0.48146170180382
  H          -2.67182649395083     -1.95060530816853     -2.15379666834002
  H          -1.34752827195037     -0.95498953837837     -2.86560476163318
  H          -2.61279163305439     -0.18914618952663     -1.84811083235715
  H           0.85632815957744     -0.49085772176330      1.65950619606567
  H           2.30433757804464      1.42937976257882      0.94173707054152
  H           3.36870773210429      0.06918437317618      1.41464116425133
  H           3.05507848193230      0.41411376813930     -0.32622299853873
  H           1.04168097389157     -2.75740409463636      0.62226558432565
  H           2.27526647815798     -2.15551471170726     -0.53637180574487
  H           2.66332235507494     -2.28759580881343      1.21142531173811
*