! RI BP86 def2-SVP D3BJ TIGHTSCF Opt
%pal
nprocs 6
end

* xyz 0 1
C     -1.278615    3.879298    0.042899
C     -1.131055    2.694004   -0.682475
C     -0.183221    1.722626   -0.303978
C      0.614610    1.982465    0.822763
C      0.467292    3.168918    1.548591
C     -0.477167    4.105269    1.152238
F     -0.617037    5.239839    1.849618
P     -0.066291    0.211649   -1.316700
C      1.477665   -0.579558   -0.757663
C      2.686409   -0.135530   -1.329505
C      3.910731   -0.694632   -0.953602
C      3.937032   -1.705398   -0.004037
C      2.763225   -2.166117    0.575418
C      1.537950   -1.606182    0.199418
F      5.108920   -2.242346    0.358616
C     -1.381112   -0.866358   -0.659832
C     -2.073954   -0.627197    0.538654
C     -3.074409   -1.501161    0.976233
C     -3.391084   -2.619473    0.217979
C     -2.726880   -2.882166   -0.971070
C     -1.727578   -2.008659   -1.408386
F     -4.348499   -3.455285    0.639792
H     -2.011438    4.623026   -0.253019
H     -1.769133    2.534477   -1.550601
H      1.361027    1.269700    1.163724
H      1.085448    3.364618    2.419151
H      2.685812    0.656888   -2.076705
H      4.838440   -0.347325   -1.396843
H      2.804687   -2.958475    1.316187
H      0.639062   -1.988196    0.676382
H     -1.849037    0.236332    1.159267
H     -3.606199   -1.312585    1.903556
H     -2.988224   -3.761058   -1.551566
H     -1.217377   -2.231411   -2.344501
*