! RI BP86 def2-SVP D3BJ TIGHTSCF Opt
%pal
nprocs 6
end

* xyz 0 1
C      5.231090    1.138130    0.106683
C      3.829150    1.644308    0.406653
C      2.768097    0.827426   -0.332714
C      1.361819    1.343425   -0.023235
P      0.055063    0.416204   -0.949928
C     -1.449865    1.223578   -0.236173
C     -2.744878    0.592442   -0.750235
C     -3.970290    1.311869   -0.184034
C     -5.263290    0.690826   -0.688109
C      0.061664   -1.205659   -0.124254
C     -0.036638   -1.366173    1.264113
C     -0.025958   -2.639983    1.840048
C      0.083216   -3.770707    1.034892
C      0.181763   -3.628653   -0.346314
C      0.171000   -2.355026   -0.921042
H      5.973156    1.735931    0.645072
H      5.346008    0.094494    0.416461
H      5.451944    1.205568   -0.963360
H      3.652186    1.592934    1.487296
H      3.757712    2.698662    0.115253
H      2.860026   -0.226813   -0.043237
H      2.958549    0.877544   -1.412560
H      1.175888    1.306304    1.055372
H      1.292973    2.397062   -0.318777
H     -1.425731    1.195406    0.858344
H     -1.426767    2.281135   -0.524747
H     -2.789751   -0.467627   -0.471119
H     -2.774375    0.633185   -1.846739
H     -3.945320    2.370332   -0.468130
H     -3.954092    1.268725    0.911238
H     -6.125748    1.220237   -0.271237
H     -5.325674    0.746198   -1.779603
H     -5.334757   -0.360755   -0.392452
H     -0.123106   -0.505621    1.921507
H     -0.103085   -2.747235    2.918817
H      0.091496   -4.760702    1.482766
H      0.267207   -4.507327   -0.980007
H      0.249315   -2.269642   -2.003205
*