! RIJCOSX M062X def2-TZVP D3ZERO NormalSCF
%pal
nprocs 6
end

* xyz 0 1
  C          -5.15245888664491      4.95746669307349      0.72580375371369
  C          -3.62840927156090      4.81380623814127      0.78084768613128
  C          -3.03657366133689      4.20624796751087     -0.49816304393316
  C          -1.50496553517919      4.09081746799595     -0.51959555515561
  C          -0.93294939285138      3.16629702833367      0.56309851529209
  C           0.57663656147699      2.90011141902716      0.45981122260583
  C           1.03742737621802      2.25738420095635     -0.86334184599448
  C           0.22908754895397      1.02054551316933     -1.28687774446156
  P           0.04889399546124     -0.28283804094779      0.05510607284872
  C          -1.00612180212480     -1.48829455792712     -0.93023095513690
  C          -1.68487828521562     -2.59735384171118     -0.10806868422753
  C          -2.40366090919471     -2.11921737777589      1.16649251971958
  C          -3.45566991581243     -1.00782693654497      1.00558018050448
  C          -4.69481701147201     -1.36264508384681      0.15779102898985
  C          -4.57454614634938     -1.14323613832729     -1.36268676982486
  C          -4.35870328411348      0.31631029268621     -1.80055823241699
  C          -5.50123057256997      1.26467557187992     -1.42092588942633
  C           1.73999713130973     -1.07873517836787     -0.07962801025233
  C           1.94334916854840     -2.25931317179837      0.88008795158893
  C           3.34618436677548     -2.88604151035280      0.81659892142184
  C           4.47681363830220     -1.95770710981400      1.28252912762628
  C           5.86741548813468     -2.61150340242701      1.32125838623794
  C           6.41422085157914     -3.02466747436961     -0.05295127056854
  C           7.81462636045117     -3.65984735413035     -0.01964242858088
  C           8.93235644716253     -2.71905973347429      0.44590988591387
  H          -5.46652534421741      5.60761803318625     -0.11819035000735
  H          -5.55986913823225      5.39921155940108      1.65805986399194
  H          -5.64295145487652      3.97212642162362      0.57984816249273
  H          -3.16182131904277      5.80881134830515      0.96187977712524
  H          -3.34996156518925      4.18746280192266      1.65609843353441
  H          -3.47464837584010      3.19433341853824     -0.65224043659649
  H          -3.36951924525530      4.81231843544242     -1.37050225321423
  H          -1.19878258429218      3.72173944859688     -1.52271186615118
  H          -1.04932636803679      5.10312471431221     -0.42204498664887
  H          -1.47280125368049      2.19212463687599      0.53763808149396
  H          -1.14642055773055      3.58861574552611      1.56810202433041
  H           0.86489447747050      2.23346651183737      1.30156279357548
  H           1.13746041359542      3.84904173656048      0.61058351809407
  H           0.99109245031404      3.00505711631545     -1.68569255837406
  H           2.11304706667714      1.98965479356002     -0.77426248942025
  H           0.66314887895479      0.56443319439535     -2.20424927047367
  H          -0.80975786772334      1.31684502682276     -1.54990481622583
  H          -1.77909594840605     -0.85584124743507     -1.41534020669701
  H          -0.40404392993492     -1.92449256623319     -1.75779369619713
  H          -0.92768251632892     -3.35593402200635      0.18651912936145
  H          -2.39761833612794     -3.14001012563861     -0.76805615619771
  H          -2.88369979574272     -2.99980175455036      1.64886099588054
  H          -1.63493179268927     -1.75631619386701      1.88283192647587
  H          -2.97007413036034     -0.08613228988245      0.61348684737024
  H          -3.79515730448452     -0.73165889153412      2.02659461377685
  H          -4.97014744897870     -2.42418111984514      0.34762315836336
  H          -5.56090905833685     -0.77083472114232      0.52546540904346
  H          -5.50413948804769     -1.51961149069264     -1.84576138455549
  H          -3.75434388244339     -1.76889391544788     -1.77323124608621
  H          -4.21672628097292      0.33459050626287     -2.90302242191716
  H          -3.40418508412430      0.70365353853348     -1.37661947574120
  H          -6.47600160955671      0.89105996523789     -1.80059929498917
  H          -5.59627882329292      1.37946670609234     -0.32158880034850
  H          -5.34471875115837      2.27788566607396     -1.84223062639697
  H           2.47283888542956     -0.27363675153701      0.14484262425114
  H           1.92584315693565     -1.39277017047667     -1.13284509430951
  H           1.19138015016461     -3.04669770821861      0.65699534770275
  H           1.72998883346367     -1.92485992688559      1.92025069766694
  H           3.53954631055959     -3.22753286829945     -0.22466659906665
  H           3.35822959349012     -3.80598517342846      1.44333003685277
  H           4.22625138200249     -1.57644583071693      2.29775630652916
  H           4.52180761473523     -1.05918528742849      0.62693988938527
  H           6.57645429846052     -1.90398847391297      1.80258705267374
  H           5.83632862407336     -3.50645860071163      1.98495025026417
  H           5.71135914984048     -3.74199626575557     -0.52908298352199
  H           6.43113957985633     -2.13155711137045     -0.72009777240900
  H           7.78976357665766     -4.56016916595810      0.63539068838072
  H           8.05820255189306     -4.03737026903448     -1.03676672620085
  H           9.92363470664304     -3.21455886720643      0.40005492755293
  H           8.78415887869362     -2.38053982711466      1.49200425993975
  H           8.98354741524472     -1.81055717005084     -0.19141212697804
*