! RIJCOSX M062X def2-TZVP D3ZERO NormalSCF
%pal
nprocs 6
end

* xyz 0 1
  C           4.04056976472763     -1.28295692931974     -0.30191208601129
  C           2.73320064124288     -0.70599281344493     -0.85221034306975
  C           1.50114191110407     -1.14898004427261     -0.05081362727670
  P          -0.04907020846595     -0.52080963120494     -0.81876557746064
  O          -0.20128792735272     -0.85978660259540     -2.29361474326827
  C          -0.01722214693784      1.29530112457588     -0.54542752504903
  C          -0.09281493024601      2.09701210247228     -1.70107442168882
  C          -0.05729091798259      3.49617439432188     -1.58746829092102
  C           0.05368135551947      4.09677890033272     -0.32215607469735
  C           0.12701576466888      3.29797104446482      0.83315798930885
  C           0.09126489786025      1.89936928637235      0.72345089251828
  C          -1.42231182379047     -1.17925160622132      0.20001939081212
  C          -2.55202050513558     -1.63667055129500     -0.50782594927421
  C          -3.65731694965483     -2.14889379821135      0.18918033128911
  C          -3.63714770313208     -2.21185411228436      1.59302120399751
  C          -2.50736136951621     -1.76695453496974      2.30161281620194
  C          -1.40034680327617     -1.25273814653041      1.60817687813243
  H           4.02794269781581     -2.39305407274679     -0.31291401611520
  H           4.21513147213224     -0.96307136403637      0.74709154278746
  H           4.91191114305620     -0.95174235149610     -0.90264920939224
  H           2.58623840730424     -1.01080047178890     -1.90982498998789
  H           2.78225359439600      0.40489472327589     -0.86034294694835
  H           1.40967164420690     -2.25673761119631     -0.03156794230075
  H           1.55745604219700     -0.80612363871938      1.00538743512098
  H          -0.17937867737926      1.59380600729717     -2.67697689266307
  H          -0.11657308143681      4.12167522838605     -2.49159391680635
  H           0.08141349782005      5.19378026810888     -0.23316506978198
  H           0.21044744797845      3.76866163513257      1.82487424827560
  H           0.14013332482878      1.28309904423243      1.63449540010831
  H          -2.53283043815969     -1.58857221950748     -1.60790147503074
  H          -4.53868907399692     -2.50503217075714     -0.36617865557544
  H          -4.50377936214425     -2.61508623623123      2.13926283915947
  H          -2.48721458932695     -1.82485573021947      3.40078653688196
  H          -0.51681909892450     -0.91855812192391      2.17386624872509
*