! RI BP86 def2-SVP D3BJ TIGHTSCF Opt
%pal
nprocs 6
end

* xyz 0 1
C     -2.545318   -0.974418   -1.243425
C     -1.160800   -1.292557   -0.659155
C     -0.540154   -2.398495   -1.551954
C     -1.336951   -1.900585    0.738953
P     -0.021215    0.183597   -0.732056
O      0.202180    0.494869   -2.200539
C      1.511284   -0.224414    0.103344
C      2.681502   -0.329171   -0.666451
C      3.907948   -0.639733   -0.077528
C      3.984544   -0.850530    1.295508
C      2.835718   -0.750175    2.075648
C      1.608728   -0.438700    1.483308
C     -0.790636    1.708824    0.021797
C     -1.543215    1.487434    1.335579
C     -1.757235    2.381201   -0.978829
C      0.335195    2.737718    0.289527
H     -2.456810   -0.488403   -2.220416
H     -3.114240   -0.312733   -0.586696
H     -3.143568   -1.883375   -1.375294
H     -0.438476   -2.057996   -2.587835
H      0.459544   -2.672519   -1.199188
H     -1.155330   -3.305314   -1.556284
H     -2.056142   -2.728100    0.721254
H     -1.698873   -1.173702    1.465545
H     -0.396184   -2.308368    1.119452
H      2.634941   -0.163570   -1.742562
H      4.800735   -0.714879   -0.692967
H      4.938508   -1.092136    1.756634
H      2.894870   -0.915079    3.148690
H      0.734728   -0.372918    2.121515
H     -2.431717    0.869295    1.190766
H     -1.887340    2.438571    1.759198
H     -0.915962    1.009105    2.089139
H     -2.600063    1.735405   -1.228962
H     -1.247809    2.629495   -1.915826
H     -2.169184    3.311804   -0.571476
H      0.931560    2.905333   -0.613949
H     -0.069862    3.703628    0.611957
H      1.015098    2.391591    1.073577
*