! RI BP86 def2-SVP D3BJ TIGHTSCF Opt
%pal
nprocs 6
end

* xyz 0 1
C     -3.276795   -2.804494    0.137050
C     -2.559058   -3.016061   -1.035766
C     -1.603605   -2.083073   -1.448333
C     -1.344687   -0.923152   -0.695243
C     -2.082793   -0.728145    0.481428
C     -3.039520   -1.661283    0.894744
P     -0.079270    0.231635   -1.317060
C     -0.289797    1.720163   -0.286615
C     -1.257197    2.661742   -0.681843
C     -1.476158    3.827983    0.056728
C     -0.729325    4.075452    1.204168
C      0.234401    3.157647    1.611900
C      0.452701    1.990450    0.872528
C      1.495972   -0.482656   -0.741067
C      2.689244    0.050355   -1.263518
C      3.937120   -0.445009   -0.872072
C      4.006844   -1.485490    0.048074
C      2.842338   -2.032408    0.577826
C      1.595403   -1.533480    0.183820
Br     5.689846   -2.158381    0.581990
H     -4.021322   -3.527545    0.459271
H     -2.741075   -3.905614   -1.633132
H     -1.056913   -2.274545   -2.370347
H     -1.928469    0.148729    1.104866
H     -3.599530   -1.490177    1.810671
H     -1.857274    2.493210   -1.574672
H     -2.230021    4.540772   -0.267151
H     -0.897157    4.981982    1.779494
H      0.820537    3.346837    2.507701
H      1.210439    1.298427    1.230291
H      2.658301    0.866444   -1.984227
H      4.840784   -0.011328   -1.291697
H      2.887859   -2.846012    1.297040
H      0.708176   -1.982977    0.623152
*