! RIJCOSX M062X def2-TZVP D3ZERO NormalSCF
%pal
nprocs 6
end

* xyz 0 1
  C          -0.70842688938131     -2.42297852092668     -1.67843530250784
  C          -1.15840504118323     -3.68918547441074     -1.28108892799836
  C          -1.80905253968223     -3.82661574206556     -0.04197582985170
  C          -2.00665201913897     -2.71595665776148      0.79544461022013
  C          -1.53810946837022     -1.45701407344164      0.38997824100718
  C          -0.88032774486131     -1.29377596180938     -0.84712863773294
  P          -0.21788530552671      0.32118430034777     -1.46332818839111
  C           1.53311823457941      0.22815590441206     -0.86993233906087
  C           2.42856316035354      1.21354864250352     -1.34218769043351
  C           3.76667232864734      1.23439248758647     -0.92674517992766
  C           4.22377575461056      0.24256376731455     -0.04080169417550
  C           3.35697656067690     -0.75786994777197      0.43008767526868
  C           2.01621712405851     -0.75727705014897      0.01603791597424
  Cl          5.89466812706242      0.25170868311551      0.47608990125348
  C          -0.94229719836060      1.48930299810112     -0.22325155617552
  C          -2.24839982709957      1.96748751218318     -0.47108583262620
  C          -2.88175921817701      2.83965140485838      0.42425255791511
  C          -2.19177516815679      3.25786568445003      1.57609844620779
  C          -0.88617659019952      2.80923786236754      1.83668642009269
  C          -0.27055209695214      1.92456963749357      0.93805837756869
  Cl         -2.96764729350016      4.35622463051030      2.69456042402454
  Cl         -2.38523959846411     -5.40016830905587      0.45926753719921
  H          -0.20940269284697     -2.31051033904154     -2.65457448477996
  H          -1.01881559626215     -4.56816571226314     -1.92604673968336
  H          -2.51998480247742     -2.84294294216999      1.75914524680956
  H          -1.68469052591915     -0.58977579162611      1.05095504801815
  H           2.07097727044263      1.98256922447626     -2.04591117660297
  H           4.46074673336997      2.00526439352549     -1.29019248367360
  H           3.73331478103522     -1.52642572206081      1.12008005790073
  H           1.33667897296399     -1.53577196512178      0.39392838841392
  H          -2.78206379982646      1.64838753994253     -1.38096367159319
  H          -3.90016051241172      3.20629449979955      0.23320964507383
  H          -0.36207587317434      3.14956919490195      2.74104300753839
  H           0.74819075417161      1.56645584178589      1.14872823472795
*