! RIJONX B3LYP def2-SVP D3BJ TIGHTSCF Opt
%pal
nprocs 6
end

* xyz 0 1
C     -1.896337   -2.046541    0.116894
C     -1.398604   -0.740020   -0.479288
P     -0.158618    0.103895    0.603008
C      1.328222   -0.945779    0.273437
C      2.561074   -0.456096    1.015362
C      0.241938    1.573428   -0.446349
C     -0.853679    2.626396   -0.413962
H     -1.090106   -2.779478    0.222400
H     -2.660416   -2.486833   -0.532338
H     -2.344898   -1.892386    1.104428
H     -2.257379   -0.074590   -0.615819
H     -0.972063   -0.925916   -1.470817
H      1.115181   -1.969655    0.597820
H      1.535201   -0.983033   -0.801456
H      3.402634   -1.131537    0.828996
H      2.862093    0.544601    0.689282
H      2.392079   -0.422897    2.097273
H      1.167248    2.027837   -0.077231
H      0.424031    1.262348   -1.480609
H     -1.793718    2.249111   -0.829076
H     -0.554787    3.495603   -1.009207
H     -1.049097    2.971544    0.607252
*