! RIJCOSX M062X def2-TZVP D3ZERO NormalSCF
%pal
nprocs 6
end

* xyz 0 1
  C          -3.19691590914514     -3.31060748688529     -0.51718380534893
  C          -2.20061212889250     -2.76470213513199     -1.34463574348218
  C          -1.34320788786935     -1.76856256268140     -0.84970628913287
  C          -1.49081382169709     -1.31148139928764      0.47546883841039
  C          -2.47948900073423     -1.87162681491754      1.30975578681374
  C          -3.33227746952596     -2.86759486879739      0.81023703794957
  P          -0.45612706547032      0.00417675236309      1.21730060411862
  O          -0.34447767264266     -0.09591209704276      2.72870294339337
  C          -1.17389235338820      1.58827872366331      0.64494038570352
  C          -1.00237273469544      2.69797459120540      1.49736260389642
  C          -1.49955177727299      3.95367977597449      1.11696953939997
  C          -2.17208517789695      4.10366512767761     -0.10858507715788
  C          -2.35811863468946      2.99444170459983     -0.95135030547158
  C          -1.86456184375290      1.73462722049918     -0.57497945174530
  C           1.16889671914274     -0.12546923396711      0.37272764198299
  C           1.43734288942805      0.43704849337278     -0.89236922960751
  C           2.69885268486849      0.26983465905082     -1.47601067374347
  C           3.70338768302776     -0.44961638359076     -0.79627225096871
  C           3.44025495069929     -0.99409188639762      0.47876137914919
  C           2.17731573888103     -0.82930039382579      1.06173626015858
  C           5.02974466176390     -0.59663617916304     -1.46850867508946
  O           5.30523153563925     -0.14731706396633     -2.56915451691471
  O           5.92441481729840     -1.29746231701136     -0.72053322756728
  H          -3.86545547322513     -4.09371741956377     -0.90664960170754
  H          -2.08394966352246     -3.12318530358602     -2.37886871754412
  H          -0.54720617922492     -1.35989831505958     -1.49126774984928
  H          -2.55460881059517     -1.52327832435939      2.35157081967245
  H          -4.10368383568374     -3.30588006556636      1.46195216494570
  H          -0.48940507591632      2.55363814003669      2.46085389368119
  H          -1.36672141049089      4.82024647019672      1.78276388928888
  H          -2.56260199708024      5.08947515258163     -0.40451974813890
  H          -2.89910973059756      3.10873926629947     -1.90320852043368
  H          -2.03313033011409      0.86062101935055     -1.22289494374807
  H           0.66389310863598      1.02189163360328     -1.41339960141866
  H           2.93754942093699      0.69568586671803     -2.46164614409059
  H           4.23326832516238     -1.54121604805742      1.00712185652966
  H           1.95506090376668     -1.22888467295048      2.06323451511955
  H           6.74516354487276     -1.32758662538384     -1.25858488705307
*