! RIJCOSX M062X def2-TZVP D3ZERO NormalSCF
%pal
nprocs 6
end

* xyz 0 1
  C          -2.89952554105948     -3.44872326182547      0.18911972983529
  C          -1.71830447303613     -3.04669621777973      0.83492082453040
  C          -0.95389578419993     -1.98753475112919      0.31827111976110
  C          -1.36184835560711     -1.32304414138882     -0.85785619186694
  C          -2.54350054118998     -1.74237308262927     -1.50827516797121
  C          -3.31255698349991     -2.79192038582411     -0.98306218973473
  P          -0.45013450197188      0.10073583668398     -1.61259808142869
  C          -1.27029988346765      1.53707465335148     -0.78169130055705
  C          -2.14345841616520      1.41531463209622      0.31946723026627
  C          -2.71577585730205      2.55970662691006      0.89896793255123
  C          -2.41908599921889      3.83556676263875      0.39095444274326
  C          -1.55226093378699      3.96496514474314     -0.70811877166320
  C          -0.99026467839390      2.82217692360171     -1.29740017916622
  C           1.14874923792497      0.01585332594658     -0.68351758080138
  C           2.08508671703447     -0.95818624561271     -1.10259886467710
  C           3.31901876356987     -1.08938126666102     -0.45670598657164
  C           3.64910514563993     -0.22926338841507      0.61356067621069
  C           2.72610660886876      0.75332607858026      1.02518846056731
  C           1.48628911822437      0.87423329962240      0.38537255924144
  C           4.95065577974800     -0.31624631763762      1.33604120799389
  O           5.28382517879664      0.40153376217703      2.26570293568891
  O           5.75911919758348     -1.30035020588847      0.85126156138634
  H          -3.49713176611394     -4.27829908354585      0.59704326080122
  H          -1.38952721453210     -3.55829204433668      1.75281211636761
  H          -0.03519083192836     -1.67094676605955      0.83431457007817
  H          -2.86102839919070     -1.23599514539141     -2.43416026306268
  H          -4.23428241456681     -3.10566374788689     -1.49691850319051
  H          -2.37306038513408      0.41948591628495      0.72710673577889
  H          -3.39662210972676      2.45270882073857      1.75768086946300
  H          -2.86769640633485      4.73060136923705      0.84853868238936
  H          -1.32008962017810      4.96124700082006     -1.11499752260153
  H          -0.32169039905370      2.92384550762591     -2.16776445416706
  H           1.83564392252008     -1.62415869071217     -1.94435096419857
  H           4.04068040480224     -1.85244891033025     -0.77972518423740
  H           3.00258644541537      1.41190124451143      1.86191663452862
  H           0.76827492281274      1.63655486658578      0.72160401247157
  H           6.57209105271762     -1.25730811910107      1.39989664324130
*