! RIJONX B3LYP def2-SVP D3BJ TIGHTSCF Opt
%pal
nprocs 6
end

* xyz 0 1
C     -4.008100    0.530957    1.313228
C     -4.041488    0.662644   -0.071718
C     -2.892531    0.410000   -0.826479
C     -1.691311    0.019301   -0.210324
C     -1.678680   -0.105301    1.186402
C     -2.827383    0.147040    1.942320
P     -0.241265   -0.264413   -1.279591
C      0.668203   -1.651850   -0.533695
C      2.070354   -1.721124   -0.597710
C      2.768283   -2.809085   -0.063144
C      2.075293   -3.863076    0.523360
C      0.685201   -3.836332    0.561828
C     -0.010181   -2.747431    0.026783
C      0.728436    1.232767   -0.896131
C      0.822190    2.229330   -1.884601
C      1.525887    3.412113   -1.665370
C      2.152915    3.632202   -0.451341
C      2.076292    2.671235    0.542686
C      1.372183    1.487152    0.324914
F      1.333006    0.592728    1.323204
F      2.683600    2.878244    1.719753
F      2.832221    4.767794   -0.239775
F      1.595986    4.336894   -2.633092
F      0.226954    2.058004   -3.076469
H     -4.900741    0.726506    1.901616
H     -4.961127    0.962073   -0.567964
H     -2.948525    0.522528   -1.908195
H     -0.775820   -0.406379    1.713057
H     -2.796238    0.041981    3.023978
H      2.647649   -0.931905   -1.072793
H      3.853826   -2.834566   -0.113517
H      2.616555   -4.709765    0.936973
H      0.136511   -4.665773    1.000590
H     -1.098154   -2.774495    0.051217
*