! RI BP86 def2-SVP D3BJ TIGHTSCF Opt
%pal
nprocs 6
end

* xyz 0 1
C      4.270367   -0.632994   -0.090137
C      3.856916   -0.399678   -1.400404
C      2.511241   -0.151085   -1.673609
C      1.564100   -0.133028   -0.638691
C      1.994249   -0.368315    0.675396
C      3.340270   -0.616238    0.947648
P     -0.174509    0.165619   -1.014460
O     -0.418336    0.255381   -2.518860
C     -1.089290   -1.230491   -0.287461
C     -1.360856   -2.339006   -1.089878
C     -2.052652   -3.415593   -0.543571
C     -2.455249   -3.362104    0.784972
C     -2.149197   -2.228260    1.517526
N     -1.480265   -1.167472    1.016370
C     -0.727111    1.667758   -0.160173
C     -2.001179    2.160085   -0.448484
C     -2.440340    3.318327    0.185813
C     -1.600434    3.960255    1.086736
C     -0.348233    3.417071    1.316050
N      0.106606    2.296096    0.716577
H      5.318868   -0.823172    0.123198
H      4.582178   -0.408434   -2.209849
H      2.196142    0.031857   -2.699517
H      1.277536   -0.346487    1.494891
H      3.662453   -0.790834    1.970828
H     -1.037267   -2.357688   -2.127019
H     -2.274683   -4.288677   -1.150962
H     -2.995073   -4.185357    1.239435
H     -2.442914   -2.140287    2.559894
H     -2.637582    1.646733   -1.163174
H     -3.428718    3.716794   -0.024544
H     -1.912589    4.864670    1.596431
H      0.345552    3.884555    2.009030
*