! RI BP86 def2-SVP D3BJ TIGHTSCF Opt
%pal
nprocs 6
end

* xyz 0 1
C      0.571425    3.353790   -0.049760
C     -0.445996    2.268771    0.250363
P     -0.215489    0.759911   -0.750597
O     -0.193381    1.177111   -2.207605
C     -1.553020   -0.372017   -0.382455
C     -2.207586   -0.397419    0.856537
C     -3.240056   -1.307283    1.095917
C     -3.630250   -2.200685    0.100483
C     -2.990308   -2.185641   -1.136121
C     -1.958931   -1.277146   -1.375049
C      1.316557    0.010857   -0.207507
C      2.386417   -0.104412   -1.106663
C      3.594486   -0.676490   -0.707162
C      3.746577   -1.140911    0.597208
C      2.691645   -1.034007    1.501307
C      1.482815   -0.460847    1.101926
H      1.586997    3.002364    0.154556
H      0.525642    3.647994   -1.102518
H      0.381888    4.238697    0.564891
H     -0.394029    2.012135    1.313043
H     -1.452036    2.653621    0.051108
H     -1.924062    0.286872    1.650625
H     -3.742557   -1.319280    2.059994
H     -4.434738   -2.907370    0.287096
H     -3.294256   -2.878491   -1.916612
H     -1.466315   -1.266167   -2.346638
H      2.274198    0.256059   -2.128462
H      4.415030   -0.760253   -1.415222
H      4.687007   -1.588585    0.908074
H      2.810618   -1.400526    2.517876
H      0.671710   -0.390652    1.821365
*