! RI BP86 def2-SVP D3BJ TIGHTSCF Opt
%pal
nprocs 6
end

* xyz 0 1
C      0.323191    5.659333    0.730157
C      0.810007    5.054557   -0.577663
C      0.821189    3.523594   -0.579405
C     -0.578952    2.908586   -0.493459
C     -0.563726    1.374292   -0.516190
C     -0.248919    0.799733   -1.896407
P     -0.065597   -1.019048   -2.047778
C      1.676697   -1.354860   -1.581582
C      2.180018   -0.761149   -0.271507
C      3.605005   -1.233737    0.038484
C      4.118083   -0.621869    1.344138
C      5.498500   -1.138647    1.754520
C      6.607570   -0.735975    0.794942
C     -1.019232   -1.741350   -0.659412
C     -2.526130   -1.730031   -0.926913
C     -3.299774   -2.325114    0.252351
C     -4.806232   -2.323535   -0.012391
C     -5.578263   -2.915420    1.166512
C     -7.076278   -2.917117    0.906896
H     -0.734857    5.443172    0.903649
H      0.899401    5.277527    1.578775
H      0.437797    6.747866    0.705507
H      0.191811    5.424506   -1.403863
H      1.831344    5.408041   -0.763617
H      1.314249    3.196135   -1.500958
H      1.435936    3.160434    0.253132
H     -1.052956    3.220617    0.444230
H     -1.207500    3.286720   -1.308513
H      0.132501    1.014141    0.246478
H     -1.558847    1.034625   -0.205113
H     -1.062769    1.090848   -2.572083
H      0.657322    1.254243   -2.308651
H      1.801487   -2.444112   -1.555733
H      2.312681   -0.994478   -2.399169
H      2.183305    0.332787   -0.333988
H      1.523166   -1.041647    0.559357
H      4.263548   -0.954527   -0.791595
H      3.620852   -2.327623    0.114459
H      3.411853   -0.854686    2.150785
H      4.146095    0.471015    1.255209
H      5.475743   -2.230574    1.848510
H      5.736669   -0.740206    2.748017
H      7.578781   -1.049400    1.191279
H      6.482444   -1.207836   -0.183941
H      6.632788    0.349472    0.656365
H     -0.696723   -2.782001   -0.533675
H     -0.800276   -1.235811    0.285656
H     -2.878239   -0.707680   -1.110743
H     -2.748669   -2.306613   -1.834293
H     -2.959978   -3.351954    0.434131
H     -3.086096   -1.747570    1.159972
H     -5.020443   -2.901893   -0.919438
H     -5.146251   -1.296978   -0.196034
H     -5.244418   -3.942932    1.352305
H     -5.371447   -2.337720    2.074906
H     -7.320478   -3.514841    0.022864
H     -7.448106   -1.899871    0.747711
H     -7.608875   -3.343440    1.762815
*