! RI BP86 def2-SVP D3BJ TIGHTSCF Opt
%pal
nprocs 6
end

* xyz 0 1
C      1.272748    3.471914   -1.046561
C      0.346384    2.708074   -1.643888
C     -0.708546    1.933676   -0.910283
P     -0.293127    0.197684   -1.313042
C      1.176479   -0.094172   -0.262889
C      2.386247   -0.445474   -0.880318
C      3.536907   -0.673236   -0.121106
C      3.493040   -0.552939    1.265661
C      2.299788   -0.204702    1.893772
C      1.149243    0.024284    1.134685
C     -1.567374   -0.782322   -0.438470
C     -2.831776   -0.269341   -0.114847
C     -3.785539   -1.058682    0.537553
C     -3.496192   -2.379660    0.866128
C     -2.256221   -2.915571    0.535175
C     -1.304947   -2.126136   -0.117226
H      1.337221    3.550108    0.034406
H      2.001725    4.021816   -1.633530
H      0.326938    2.677706   -2.732878
H     -1.683847    2.222191   -1.313994
H     -0.709543    2.143160    0.163724
H      2.444614   -0.541902   -1.962477
H      4.466359   -0.943421   -0.615132
H      4.387742   -0.730772    1.856187
H      2.261271   -0.112406    2.975903
H      0.229444    0.289659    1.650678
H     -3.110197    0.748965   -0.368090
H     -4.758378   -0.639933    0.782312
H     -4.238164   -2.992339    1.370878
H     -2.025310   -3.949135    0.779084
H     -0.346990   -2.577093   -0.371415
*