! RIJCOSX M062X def2-TZVP D3ZERO NormalSCF
%pal
nprocs 6
end

* xyz 0 1
  C          -0.50717269231061      1.40785858360796     -1.67220707218287
  C          -0.69201926295834      1.83692975570489     -0.21086105810508
  C           0.36289222302936      2.90117400339097      0.15332954899716
  C          -2.09082409957580      2.44452943366400      0.02429064897643
  P          -0.45616106171531      0.41889050845615      1.07587958395934
  C           1.33238223933874      0.00482467628996      0.81124524052785
  C           2.25113535243254      0.48386397599057      1.77041909624675
  C           3.63095234734895      0.26980138040572      1.61631111905948
  C           4.11086051090903     -0.43984221649065      0.50362033252456
  C           3.20506856300493     -0.93676508166442     -0.45036697639549
  C           1.82739085190276     -0.71715001042651     -0.29877225291866
  C          -1.26335956281055     -1.08903161792081      0.36792622203629
  C          -2.47173845147092     -1.06176374222634     -0.36494571438098
  C          -3.10444039917613     -2.25004793390857     -0.76632638448978
  C          -2.55262760236202     -3.49664995407115     -0.43341738158481
  C          -1.36383430487238     -3.54202382666659      0.31513430848860
  C          -0.73129520575734     -2.35613045683789      0.71419616220235
  H          -0.67251217607940      2.27831877419333     -2.34461066803150
  H           0.52189886557959      1.04006787406734     -1.85480021948124
  H          -1.21470670561316      0.61079173885964     -1.97347787219486
  H           1.39336758371716      2.55085445117309     -0.05212705442074
  H           0.30467107815286      3.18737961075830      1.22456991347404
  H           0.18622432992117      3.81710373369063     -0.45050442605242
  H          -2.23019966800099      2.73315743901412      1.08612276337071
  H          -2.91391955309965      1.75449439406813     -0.24516316282522
  H          -2.21069555999692      3.35707804200612     -0.59882479547759
  H           1.87193167355271      1.03143428406449      2.64809334498286
  H           4.33320817948740      0.65172909642985      2.37341277771262
  H           5.19117095763462     -0.61395860626463      0.38251382841067
  H           3.57544392320399     -1.50053098782414     -1.32078992754302
  H           1.12567301883820     -1.12454965641486     -1.04168628300590
  H          -2.93679439335030     -0.10297754538487     -0.63076087749442
  H          -4.03940176168576     -2.19568628120078     -1.34540350752790
  H          -3.04799858741167     -4.42742570796439     -0.74908197133108
  H          -0.92237143755568     -4.51185259556692      0.59290735141916
  H           0.19780278774894     -2.41389353500177      1.30184536305468
*