! RIJCOSX M062X def2-TZVP D3ZERO NormalSCF
%pal
nprocs 6
end

* xyz 0 1
  C           4.33278669401180     -0.37688729008598     -0.11297659578495
  C           3.87073109083059     -0.32808331949379     -1.43958274527979
  C           2.49665667300657     -0.20614517675163     -1.69867511488185
  C           1.59006399290829     -0.13362306564676     -0.62236496412865
  C           2.04664814465407     -0.18148064444982      0.71217373010513
  C           3.42321217410895     -0.30348552442857      0.95743992821271
  P          -0.16956983356930      0.02270480491883     -1.05629098584043
  O          -0.46116882819708      0.06064508709373     -2.54967461948568
  C          -1.04110743137519     -1.37389594982247     -0.21670663995798
  C          -1.92279913390666     -2.13974543843919     -1.00195271680584
  C          -2.59944378416421     -3.20110752403515     -0.38170001260759
  C          -2.36635435004258     -3.44383466657769      0.98117986942873
  C          -1.46035401893675     -2.61531078691224      1.66938071548828
  N          -0.80590786563237     -1.59828830739986      1.08743364375822
  C          -0.78782759627300      1.53514262460194     -0.19265399967070
  C          -1.51703742723344      2.45761276957265     -0.96576995585438
  C          -2.00038752784457      3.61031987271399     -0.32796432881869
  C          -1.73573109740928      3.78466144817298      1.03957055159673
  C          -0.99303961606220      2.79796851575302      1.71467520055407
  N          -0.52420324179165      1.69205645928606      1.11604817162127
  H           5.41105878950631     -0.47260568039148      0.08904349505156
  H           4.58416464017396     -0.38514551501670     -2.27618274648782
  H           2.10342836689112     -0.16496598202848     -2.72649139703890
  H           1.31856056574081     -0.12172725086330      1.53218788239405
  H           3.79074126117710     -0.34140449456995      1.99464059497478
  H          -2.04660087840457     -1.88746670809905     -2.06598955049399
  H          -3.29774856113093     -3.83176344651167     -0.95371546520413
  H          -2.87475934768494     -4.26523967948479      1.50830823480723
  H          -1.25233096414056     -2.78355391365471      2.74102016677687
  H          -1.67765318222141      2.24988347218141     -2.03449639274526
  H          -2.57435490643406      4.36344231497208     -0.89002160731169
  H          -2.09491724241568      4.67323446989482      1.58036961207766
  H          -0.76475455813913      2.90808952550175      2.78974004155101
*