! RI BP86 def2-SVP D3BJ TIGHTSCF Opt
%pal
nprocs 6
end

* xyz 0 1
C     -0.819809    4.828366    2.039791
C     -0.064777    3.508943    2.067416
C     -0.366296    2.664094    0.828128
C      0.397212    1.339551    0.866723
P      0.107513    0.315772   -0.651226
C      1.128925   -1.173937   -0.234451
C      2.625863   -0.922065   -0.420424
C      3.437185   -2.184134   -0.121331
C      4.927682   -1.944589   -0.302309
C     -1.585643   -0.340399   -0.278557
C     -2.100441   -1.274663   -1.374451
C     -3.519239   -1.756069   -1.064969
C     -4.040812   -2.686798   -2.148213
H     -0.541355    5.421406    1.162817
H     -0.589394    5.415670    2.934153
H     -1.901285    4.661043    2.012565
H     -0.342059    2.955004    2.971853
H      1.010824    3.711901    2.127475
H     -0.093184    3.229828   -0.071961
H     -1.446196    2.482016    0.772495
H      0.117873    0.768407    1.759188
H      1.469317    1.551663    0.940045
H      0.824477   -1.995546   -0.891754
H      0.923921   -1.489092    0.794811
H      2.827736   -0.596149   -1.448934
H      2.963110   -0.114248    0.239975
H      3.248251   -2.512883    0.907244
H      3.120815   -2.996749   -0.785622
H      5.154818   -1.644564   -1.330275
H      5.487803   -2.859124   -0.083704
H      5.283502   -1.158957    0.371859
H     -1.579375   -0.858261    0.687107
H     -2.271814    0.508430   -0.186716
H     -1.440994   -2.144782   -1.476696
H     -2.095792   -0.757579   -2.342649
H     -4.193291   -0.896241   -0.975160
H     -3.532379   -2.281310   -0.102842
H     -3.406807   -3.574287   -2.241638
H     -4.070294   -2.181461   -3.118823
H     -5.055595   -3.018209   -1.906796
*