! RI BP86 def2-SVP D3BJ TIGHTSCF Opt
%pal
nprocs 6
end

* xyz 0 1
C     -0.586997    3.982932   -0.560630
C     -0.244866    2.793783    0.325001
C     -0.639828    1.476080   -0.340673
P     -0.296546    0.010697    0.741283
C     -0.849364   -1.355828   -0.382471
C     -2.371564   -1.477163   -0.442822
C     -2.797152   -2.639466   -1.327919
C      1.540212   -0.122092    0.530319
C      2.129635   -1.299061    1.306711
C      3.643346   -1.352815    1.160898
H     -0.297299    4.917020   -0.069175
H     -0.058204    3.924165   -1.517332
H     -1.661954    4.025209   -0.763175
H      0.829948    2.813638    0.538422
H     -0.762703    2.906045    1.285568
H     -1.712691    1.498699   -0.560521
H     -0.115716    1.363717   -1.296435
H     -0.442832   -1.198147   -1.387790
H     -0.434086   -2.298345   -0.009528
H     -2.818824   -0.556448   -0.834499
H     -2.782295   -1.628174    0.563132
H     -3.888846   -2.711198   -1.360030
H     -2.435204   -2.505140   -2.352275
H     -2.405820   -3.587731   -0.945821
H      1.787054   -0.209884   -0.533712
H      1.996976    0.805050    0.893159
H      1.878319   -1.217750    2.371454
H      1.709585   -2.247116    0.951863
H      4.107499   -0.438911    1.545196
H      4.048086   -2.200842    1.722155
H      3.932131   -1.470923    0.111609
*