! RIJCOSX M062X def2-TZVP D3ZERO NormalSCF
%pal
nprocs 6
end

* xyz 0 1
  C          -2.71485061764309     -3.20192311167317     -0.66900622428378
  C          -1.95823710340406     -3.52917048327389      0.46988702772017
  C          -1.17750953159314     -2.54868440216633      1.10022885837279
  C          -1.12533170435774     -1.23264638357521      0.58884553332163
  C          -1.88821472165735     -0.91229055356332     -0.55353652927512
  C          -2.68035057917793     -1.89205583132552     -1.17512185892809
  P          -0.04240263458509     -0.02390905599915      1.48210677822161
  C           1.59391765491763     -0.35913428682546      0.68079652354773
  C           2.72837213842375      0.25571473844078      1.25627675770820
  C           4.00164109811453      0.07103400923179      0.69697148121156
  C           4.16139372488614     -0.74843429141912     -0.43422748890443
  C           3.04088685274599     -1.37567545624412     -1.00355483670077
  C           1.76304370917205     -1.18105570820154     -0.45300963958347
  C          -0.52223906352440      1.55951050959588      0.64909863023502
  C          -1.65240419388625      2.23605660850295      1.16035508622939
  C          -2.09533566138281      3.43097260832217      0.57381580227763
  C          -1.40119459937967      3.97779995419370     -0.51973138501829
  C          -0.26760211623426      3.31958286466288     -1.02463490947772
  C           0.16921581119091      2.11538102246630     -0.44755705929137
  H          -3.33507916645662     -3.96811637206198     -1.15895894312697
  H          -1.98420858553136     -4.55238979369971      0.87560098693289
  H          -0.59555486758538     -2.80395856041342      2.00084524219075
  H          -1.85735063355079      0.10932693451307     -0.96082111918821
  H          -3.27201732465818     -1.62914845874257     -2.06582837363501
  H           2.60652175453769      0.88862454080020      2.15039390239197
  H           4.87585070697484      0.56178735823784      1.15210606206518
  H           5.16118295448782     -0.90137308171755     -0.86875993260933
  H           3.16000248174708     -2.02026192192879     -1.88836796120904
  H           0.88817179136486     -1.66788069595937     -0.90928276687522
  H          -2.19004959668904      1.81519283224033      2.02558479590056
  H          -2.98169467651548      3.94381164006645      0.97827698616721
  H          -1.74211105389091      4.92015807787694     -0.97528473927390
  H           0.28148950177186      3.74376502352629     -1.87969405535736
  H           1.05204825136842      1.59938672611265     -0.85381063175620
*