! RIJCOSX M062X def2-TZVP D3ZERO NormalSCF
%pal
nprocs 6
end

* xyz 0 1
  C          -1.26764963887077      3.12208517399922      0.09990801003586
  C           0.04252185580768      2.33766410821606     -0.01841541691389
  P           0.10164452387837      0.89634729001087      1.18818088030548
  C          -1.23957064934826     -0.15463009858498      0.44908734257690
  C          -2.47041772827405     -0.23715059241164      1.13334038738294
  C          -3.53942783095509     -0.97501817091468      0.59628077112400
  C          -3.38345777824012     -1.64721157338753     -0.62666694887850
  C          -2.15709584919194     -1.57722714203453     -1.31254951069079
  C          -1.09248109127983     -0.83538468224051     -0.77951710704816
  C           1.59092043361513     -0.02886944504827      0.60205812045156
  C           1.76539534776776     -1.35071931011255      1.07661444543948
  C           2.89325222245648     -2.10048415619847      0.71762277728193
  C           3.88183401250878     -1.53810324299456     -0.11073429766875
  C           3.72692848245078     -0.22375195023174     -0.57705751383318
  C           2.58956301667033      0.52549073742287     -0.22651832203558
  H          -1.42082424271489      3.50400175418433      1.13046170789659
  H          -1.27235053240778      3.99231299758110     -0.58798713901701
  H          -2.14094740046379      2.48749034670925     -0.15480004523551
  H           0.90761614583258      2.99173217048179      0.22417981630910
  H           0.18962152962874      1.96230949181552     -1.05441707744684
  H          -2.58575739846952      0.28193567248837      2.09849423632225
  H          -4.49547114293012     -1.03079658425711      1.13963105729083
  H          -4.21713422673555     -2.23157725626477     -1.04575136906228
  H          -2.03083573567029     -2.10611506854060     -2.27020150418164
  H          -0.13160526139397     -0.78727746921040     -1.31562635223916
  H           0.99723496992205     -1.79812315606587      1.72818061490450
  H           3.00524733498658     -3.13076506198818      1.08971936334751
  H           4.77084200165328     -2.12439699571151     -0.38922800823057
  H           4.49493254020251      0.22563086062509     -1.22584238030305
  H           2.48747308956490      1.55059935266345     -0.61143253788400
*