! RI BP86 def2-SVP D3BJ TIGHTSCF Opt
%pal
nprocs 6
end

* xyz 0 1
C     -2.186183    1.319927    0.391175
P     -1.331376    0.207040   -0.732834
O     -1.566801    0.643526   -2.157781
C     -2.147455   -1.367760   -0.438510
C      0.362500    0.077802   -0.235111
C      0.718169   -0.317317    1.061438
C      2.061167   -0.412135    1.431283
C      3.062057   -0.113039    0.509110
C      2.721694    0.280893   -0.782882
C      1.379495    0.375429   -1.151772
H     -3.243798    1.389028    0.121315
H     -2.118436    0.964737    1.423043
H     -1.748532    2.320583    0.337175
H     -1.684085   -2.152003   -1.043503
H     -2.080699   -1.654249    0.614566
H     -3.205043   -1.300549   -0.708953
H     -0.048019   -0.554823    1.795051
H      2.328343   -0.719459    2.439298
H      4.107712   -0.186716    0.796591
H      3.499855    0.515002   -1.504931
H      1.119434    0.684083   -2.163766
*