! RI BP86 def2-SVP D3BJ TIGHTSCF Opt
%pal
nprocs 6
end

* xyz 0 1
C     -4.280720    6.720738    1.116819
C     -2.906432    6.084818    1.263689
C     -2.513326    5.312372    0.004510
C     -1.084785    4.759986    0.047022
C     -0.891584    3.657291    1.090812
C      0.536658    3.101511    1.132973
C      1.056308    2.470077   -0.166642
C      0.191914    1.359306   -0.766387
P      0.072134   -0.166645    0.278460
C     -1.017039   -1.186707   -0.815149
C     -1.737443   -2.332248   -0.097109
C     -2.775567   -1.924327    0.959826
C     -3.968304   -1.097496    0.463294
C     -5.204018   -1.918140    0.076158
C     -5.079372   -2.800451   -1.166779
C     -4.718451   -2.072547   -2.463440
C     -5.729260   -1.009102   -2.864720
C      1.741324   -0.901867   -0.054846
C      1.938158   -2.265883    0.605312
C      3.345713   -2.839187    0.396642
C      4.435374   -2.049071    1.127186
C      5.799274   -2.749583    1.124927
C      6.421607   -2.858693   -0.269698
C      7.787990   -3.550237   -0.270606
C      8.871450   -2.761842    0.449048
H     -4.294443    7.438346    0.290095
H     -4.551663    7.254088    2.033704
H     -5.045963    5.961058    0.925413
H     -2.167997    6.868770    1.466675
H     -2.921446    5.417412    2.131620
H     -3.220642    4.491287   -0.163256
H     -2.593875    5.979480   -0.862665
H     -0.854735    4.365564   -0.949339
H     -0.379151    5.577966    0.235990
H     -1.606831    2.846484    0.913353
H     -1.117782    4.053647    2.087351
H      0.598312    2.366909    1.945052
H      1.220743    3.912841    1.413564
H      1.166982    3.259928   -0.919833
H      2.072080    2.098349    0.016162
H      0.603840    1.081880   -1.743829
H     -0.818045    1.736644   -0.957105
H     -1.753577   -0.532786   -1.290688
H     -0.415196   -1.600595   -1.632265
H     -1.003995   -2.982280    0.393348
H     -2.221242   -2.955149   -0.855636
H     -3.141840   -2.831310    1.457070
H     -2.266220   -1.350033    1.743118
H     -3.689592   -0.413216   -0.341756
H     -4.278039   -0.453108    1.297288
H     -5.484870   -2.555686    0.924280
H     -6.045118   -1.227442   -0.060987
H     -6.037162   -3.316759   -1.312902
H     -4.344723   -3.591654   -0.982692
H     -4.656368   -2.815075   -3.268247
H     -3.726079   -1.618396   -2.387283
H     -6.740546   -1.425310   -2.915162
H     -5.733401   -0.173191   -2.158272
H     -5.478855   -0.606768   -3.851972
H      2.482932   -0.198319    0.334942
H      1.907952   -0.981887   -1.134956
H      1.227371   -2.983362    0.180428
H      1.723230   -2.209522    1.679989
H      3.560562   -2.880021   -0.677297
H      3.348926   -3.873638    0.762212
H      4.130974   -1.900474    2.170755
H      4.544684   -1.053535    0.682749
H      6.465953   -2.177907    1.780644
H      5.700763   -3.748339    1.567144
H      5.757852   -3.435406   -0.923461
H      6.515234   -1.860452   -0.713641
H      7.702314   -4.547088    0.177934
H      8.100140   -3.696869   -1.311827
H      9.842342   -3.250404    0.315386
H      8.677497   -2.702909    1.524245
H      8.947113   -1.743837    0.052846
*