! RIJCOSX M062X def2-TZVP D3ZERO NormalSCF
%pal
nprocs 6
end

* xyz 0 1
  C           2.54821663805698     -1.27959381919140     -0.12543921796255
  C           1.64172471238014     -0.03209889922651     -0.18807119824290
  P           0.00440753187087     -0.30229144102498      0.69265947975575
  C          -0.73152843748494      1.40969206365340      0.45241574620992
  C          -0.21014708179887      2.41836097621742      1.49763855399584
  C          -0.83953612976621      3.73468351722640      1.36410689773432
  N          -1.35850282898693      4.77652982498334      1.23457198179167
  C          -0.91189320127504     -1.19887344893877     -0.68110223280386
  C          -2.33104577980379     -1.62614621827874     -0.25029110807151
  C          -3.02285713491442     -2.39007841582867     -1.29163793781183
  N          -3.55196550852293     -2.99787877045948     -2.14145193734078
  C           3.85650692332132     -1.04920555650798     -0.74347466572292
  N           4.89391585370154     -0.83726261131844     -1.24388484335693
  H           2.70272192682762     -1.59208283285066      0.92989125735143
  H           2.07319607210327     -2.14363066470414     -0.63835880405388
  H           1.47611022741149      0.27749970357587     -1.24223296338261
  H           2.15143438439077      0.81292969911597      0.32017617615441
  H          -0.53861766816184      1.77878355445947     -0.57754388085726
  H          -1.83193844492036      1.31113731216051      0.55966515470737
  H           0.88949496254305      2.55237083710571      1.40798952022756
  H          -0.39355902001771      2.03840982816777      2.52586896258262
  H          -0.32070595739610     -2.10378697967186     -0.93370681626776
  H          -0.95507213100444     -0.57438402396191     -1.59910774670397
  H          -2.95494440548229     -0.74051283014714     -0.00202276872107
  H          -2.28541450307120     -2.24257380455519      0.67334239078895
*