! RIJONX B3LYP def2-SVP D3BJ TIGHTSCF Opt
%pal
nprocs 6
end

* xyz 0 1
C     -3.937703   -2.393980   -0.714327
C     -2.570580   -3.034328   -0.915380
C     -1.519776   -2.438077    0.021326
C     -1.422891   -0.906120   -0.118741
C     -2.818338   -0.286836    0.102065
C     -3.862057   -0.878223   -0.843498
P     -0.203779   -0.184225    1.081163
C      0.108517    1.547290    0.503101
C     -0.699972    2.544966    1.365435
C     -0.891844    3.913769    0.702771
C      0.257873    4.260433   -0.232135
C      0.403070    3.235688   -1.358230
C     -0.107458    1.839175   -0.983699
C      1.381265   -1.084945    0.760674
C      2.455499   -0.687494    1.791561
C      3.729427   -1.515882    1.620478
C      4.269019   -1.437379    0.196194
C      3.204555   -1.814977   -0.829200
C      1.939961   -0.971943   -0.659942
H     -4.645570   -2.793517   -1.449129
H     -4.323109   -2.658203    0.278099
H     -2.642112   -4.114835   -0.746713
H     -2.250774   -2.894822   -1.955493
H     -1.764134   -2.713367    1.056026
H     -0.559743   -2.911534   -0.211816
H     -1.097786   -0.687124   -1.141471
H     -2.798612    0.797873   -0.045538
H     -3.146045   -0.449895    1.138037
H     -3.612995   -0.608422   -1.877158
H     -4.843688   -0.441719   -0.627054
H      1.165921    1.745080    0.719515
H     -0.175860    2.682570    2.321235
H     -1.691907    2.155473    1.626574
H     -0.998252    4.683598    1.475464
H     -1.829962    3.912088    0.133310
H      0.113740    5.259183   -0.659451
H      1.190266    4.300791    0.345102
H     -0.140321    3.580855   -2.246252
H      1.459233    3.179062   -1.648668
H      0.379607    1.106291   -1.632896
H     -1.175038    1.790291   -1.228632
H      1.159249   -2.142885    0.948870
H      2.710978    0.375202    1.695652
H      2.079823   -0.827953    2.813167
H      4.493334   -1.165575    2.323810
H      3.519251   -2.562422    1.873542
H      5.134418   -2.101387    0.091900
H      4.622172   -0.418184   -0.003645
H      3.604326   -1.679085   -1.840484
H      2.953341   -2.877602   -0.724498
H      2.194913    0.068791   -0.890295
H      1.200550   -1.295526   -1.400731
*