! RIJCOSX M062X def2-TZVP D3ZERO NormalSCF
%pal
nprocs 6
end

* xyz 0 1
  C           2.88977153913263      2.98199158562673     -0.96522629202421
  O           1.80652530452609      2.09664840190029     -0.75185426479930
  C           0.87806916445688      2.40278788945570      0.20108239142522
  C           0.89134983800893      3.58332102433574      0.96804670494531
  C          -0.10608941672374      3.79180655383937      1.93802999926673
  C          -1.10186676331662      2.82878547204707      2.15155720654460
  C          -1.10220058670718      1.64775656286819      1.38737096118754
  C          -0.12577013580458      1.41630914959145      0.40473845460734
  P          -0.08788637462870     -0.05156166246816     -0.72274270112441
  C          -1.47445732148390     -1.06439481929458     -0.03603275610460
  C          -1.30137528195570     -2.25150676945112      0.69563267517296
  C          -2.40469523663996     -3.02272012610557      1.10321747756605
  C          -3.70194174577077     -2.60193351663713      0.78016868242636
  C          -3.90691587233076     -1.41715496472524      0.05019759333767
  C          -2.79702712621110     -0.65551382702299     -0.36287833247812
  O          -2.88515781966028      0.51084668067780     -1.06590538138203
  C          -4.16391970908725      1.02147683152395     -1.39308709212727
  C           1.36836839454859     -0.95591370893594     -0.01391719521241
  C           1.99238369847815     -0.64249528078572      1.21002113608948
  C           3.11834562188296     -1.35888340158776      1.64697609286837
  C           3.63090817891038     -2.40981886049779      0.86670490474428
  C           3.01727955876631     -2.74129068046435     -0.35177424098399
  C           1.89289286394288     -2.01774978219218     -0.78720776545577
  O           1.25605855564067     -2.37583131599813     -1.95790775436106
  C           1.77487261851229     -1.74173182968112     -3.12710322398467
  H           3.51838685442586      2.52138681573668     -1.74939446348708
  H           2.54665336713430      3.98155626465069     -1.31551971853194
  H           3.49859727055233      3.11432393467830     -0.04293979011689
  H           1.67059321733653      4.34264874145375      0.81695391574172
  H          -0.09208078625765      4.71824406640570      2.53267879514993
  H          -1.87527598541658      2.98801224290596      2.91790833301121
  H          -1.86844968350842      0.87907172450452      1.56742749928914
  H          -0.28208477744372     -2.57483533759958      0.95322174112998
  H          -2.24584172171837     -3.94870744796235      1.67575951512508
  H          -4.57357829114790     -3.19512826735546      1.09710054923942
  H          -4.92906975257635     -1.09802898330171     -0.19451750519278
  H          -3.99062551202205      1.96511669497480     -1.94216966941556
  H          -4.73549464192840      0.32133821444319     -2.04298717725372
  H          -4.76532051245940      1.23645029132755     -0.48139872899958
  H           1.58214185248500      0.17157092795591      1.82695904534887
  H           3.59220035904944     -1.10117789268539      2.60660714003385
  H           4.50758430656015     -2.97978191011473      1.21128958504322
  H           3.38728545498062     -3.56985334780724     -0.97434798504928
  H           2.84488753115845     -2.00493860435647     -3.29013421368264
  H           1.17538897520726     -2.10530991243816     -3.98301571557980
  H           1.67658252910269     -0.63518882143450     -3.05758543194722
*