! RI BP86 def2-SVP D3BJ TIGHTSCF Opt
%pal
nprocs 6
end

* xyz 0 1
C     -3.549565    7.158404    0.977452
C     -2.342711    6.316346    1.361899
C     -2.704178    4.896877    1.805936
C     -3.427036    4.041238    0.760729
C     -2.690958    3.861407   -0.570834
C     -1.287603    3.254677   -0.476259
C     -1.276667    1.845562    0.115951
C      0.118962    1.229956    0.071226
P      0.194727   -0.438052    0.735811
O     -0.446497   -0.544017    2.091514
C      1.938155   -0.872800    0.787822
C      2.684759   -0.794665   -0.539366
C      4.101210   -1.374696   -0.481581
C      5.051723   -0.574939    0.412105
C      6.459521   -1.176369    0.489062
C      7.221476   -1.265932   -0.837117
C      7.397169    0.055523   -1.589258
C      8.168550    1.103217   -0.801062
C     -0.603961   -1.490891   -0.480642
C     -0.545753   -2.977730   -0.147056
C     -1.160764   -3.873299   -1.225501
C     -2.640245   -3.626077   -1.534808
C     -3.556103   -3.825300   -0.324488
C     -5.028818   -3.688407   -0.720476
C     -5.988007   -3.782255    0.468298
C     -5.997363   -5.149909    1.134047
H     -4.284389    7.185339    1.788389
H     -3.238139    8.186915    0.768132
H     -4.039434    6.771573    0.078792
H     -1.821975    6.813371    2.189515
H     -1.635509    6.287752    0.525784
H     -1.788264    4.385752    2.125148
H     -3.340286    4.957994    2.698230
H     -4.412425    4.476970    0.555361
H     -3.630344    3.056868    1.199368
H     -2.619145    4.829469   -1.080545
H     -3.307086    3.226427   -1.220191
H     -0.629896    3.908727    0.107113
H     -0.866623    3.219532   -1.489074
H     -1.620831    1.865234    1.155397
H     -1.974732    1.206682   -0.435742
H      0.810258    1.856357    0.646541
H      0.481875    1.214577   -0.962208
H      2.409962   -0.202472    1.514177
H      2.018714   -1.885880    1.196660
H      2.723908    0.245727   -0.881402
H      2.125808   -1.349333   -1.300418
H      4.491442   -1.394896   -1.505203
H      4.056817   -2.415527   -0.139007
H      4.654568   -0.541209    1.432780
H      5.102666    0.463249    0.066197
H      6.388893   -2.186388    0.913109
H      7.048768   -0.591739    1.205900
H      8.212968   -1.690838   -0.634408
H      6.720436   -1.982122   -1.499091
H      7.940287   -0.148410   -2.520440
H      6.423059    0.461102   -1.883563
H      7.613852    1.428819    0.083408
H      9.139941    0.715152   -0.477620
H      8.347040    1.985556   -1.423942
H     -1.648894   -1.170874   -0.543846
H     -0.160001   -1.310121   -1.465016
H     -1.024916   -3.157623    0.821802
H      0.502657   -3.272844   -0.020081
H     -1.033199   -4.919108   -0.919946
H     -0.588975   -3.752958   -2.154112
H     -2.940596   -4.321883   -2.328658
H     -2.776630   -2.618192   -1.943657
H     -3.322737   -3.084770    0.448366
H     -3.372763   -4.816764    0.104137
H     -5.179740   -2.716495   -1.206975
H     -5.286065   -4.455523   -1.460851
H     -5.738111   -3.015863    1.211118
H     -7.001813   -3.561235    0.114042
H     -6.768932   -5.183820    1.910138
H     -5.038092   -5.370626    1.611533
H     -6.213399   -5.939499    0.407553
*