! RIJCOSX M062X def2-TZVP D3ZERO NormalSCF
%pal
nprocs 6
end

* xyz 0 1
  C          -2.13174245723783     -1.68372596560686      0.65326495840281
  C          -0.76531099382268     -1.45125722240460      0.00951949394264
  P           0.10490139372941      0.06154760153137      0.69013968943427
  C          -0.88473911271514      1.38922860663746     -0.18613024572664
  C          -0.36101975806075      2.79735339373972      0.09281137414839
  C          -1.31276431771691      3.87972639772727     -0.38403845627295
  O          -2.47091991201663      3.71095919007975     -0.71728271306288
  O          -0.71901456941875      5.10242859148616     -0.37827262809296
  C           1.62181023919641      0.05035737215075     -0.40973349416136
  C           2.62630891795676     -1.03292753687114     -0.01901612171714
  C           3.96769754037420     -0.86217327649318     -0.70925748139744
  O           4.33900416531247      0.13218287457707     -1.30445892950477
  O           4.74436360328599     -1.96869634093119     -0.56815337917338
  C          -2.70540010995087     -3.05178605758858      0.33032285742244
  O          -2.09018714042830     -3.98430665234680     -0.15218850184589
  O          -4.01868168594636     -3.13348635026853      0.67088112999549
  H          -2.87702132570333     -0.91490401948384      0.36176221163823
  H          -2.06287100703195     -1.61576656944657      1.76296928120825
  H          -0.12236759392153     -2.33241822028523      0.21453852142593
  H          -0.85934875015329     -1.38344399189585     -1.09646955416047
  H          -0.91702291836587      1.19280880743087     -1.28012931409993
  H          -1.93273206488745      1.32167599771237      0.17322549880460
  H           0.63324941843052      2.98094946314407     -0.36494414937306
  H          -0.21098967956779      2.95504915489630      1.18514576351519
  H          -1.41241118124335      5.73407780967824     -0.67185938212729
  H           1.32846305636326     -0.05414253751101     -1.47726871527735
  H           2.11383198503511      1.04095600523284     -0.31728025543085
  H           2.25293992826277     -2.05632665065919     -0.23054563247840
  H           2.82138140346151     -1.01561437191675      1.07750475099862
  H           5.59179942285785     -1.75559701334542     -1.01805417283264
  H          -4.29120849607745     -4.05272948896949      0.45478759579853
*