! RIJCOSX M062X def2-TZVP D3ZERO NormalSCF
%pal
nprocs 6
end

* xyz 0 1
  C          -3.74507034376437     -2.19398881939447     -0.27731921411982
  C          -3.31495081251910     -2.21339481722244      1.06027071328787
  C          -2.15998836086169     -1.51007947382184      1.43718873859771
  C          -1.43139956913986     -0.79101218344073      0.46871911784048
  C          -1.86487389639886     -0.76370369232948     -0.87294527991656
  C          -3.02299106243425     -1.46619752033604     -1.24004775536144
  P           0.07308312598612      0.05656404941163      1.07586601239382
  O           0.17529783899954      0.05759690935988      2.59396758249829
  C           1.50175751307863     -0.75748686080247      0.27081424966553
  C           1.75819581602816     -0.71141193102593     -1.11504401540395
  C           2.87082027576008     -1.39033076549349     -1.63550161212203
  C           3.72289349158822     -2.11298728934814     -0.78136092156210
  C           3.46944077057906     -2.15040693994578      0.60032254827648
  C           2.36129747503004     -1.47074013222294      1.13008927930264
  C           0.00610774756669      1.76415175720421      0.37818980216345
  C           0.05878700022239      2.83513238663499      1.28819655967871
  C           0.00633810096335      4.13945077806880      0.77364117836987
  C          -0.09551009374599      4.31276157725334     -0.61569745523259
  C          -0.14038268543083      3.17175557734489     -1.43705659309835
  N          -0.09100751560056      1.91829073541379     -0.95694158827124
  H          -4.65129730079019     -2.74555167294414     -0.57192314684869
  H          -3.88411288223141     -2.77725452757678      1.81541811917251
  H          -1.80393817818998     -1.49754743256975      2.47913036247130
  H          -1.30949813135014     -0.17142124463174     -1.61451124972762
  H          -3.36699837688890     -1.44392597290466     -2.28565341942207
  H           1.10281905514695     -0.12252967302913     -1.77307460046085
  H           3.07684810226322     -1.35317854832852     -2.71638636543894
  H           4.59254586490696     -2.64606445951596     -1.19584383848511
  H           4.14075360186027     -2.70985447246446      1.27001245395620
  H           2.14270193170332     -1.47252085162583      2.20933620853025
  H           0.13789816513764      2.61451685052526      2.36346949106320
  H           0.04414011616210      5.00994234662940      1.44681754069706
  H          -0.13978722788440      5.31709052783579     -1.06292258742206
  H          -0.21991955575221      3.27433678529274     -2.53357331507192
*