! RIJONX B3LYP def2-SVP D3BJ TIGHTSCF Opt
%pal
nprocs 6
end

* xyz 0 1
C      2.442481    3.180893   -1.635095
O      1.557055    2.154285   -1.213575
C      0.806567    2.371780   -0.081978
C      0.854881    3.562342    0.658695
C      0.070391    3.724002    1.801085
C     -0.768982    2.699114    2.216160
C     -0.827244    1.509521    1.488309
C     -0.049308    1.318509    0.329523
P     -0.112127   -0.249858   -0.638304
C     -1.605901   -1.133178   -0.034227
C     -1.507365   -2.370806    0.629951
C     -2.641474   -3.051564    1.078229
C     -3.903473   -2.517868    0.857199
C     -4.036446   -1.307795    0.177285
C     -2.905041   -0.613885   -0.277682
O     -2.977195    0.569899   -0.972689
C     -4.253745    1.161120   -1.161879
C      1.315596   -1.170475    0.045468
C      1.681710   -1.090541    1.401727
C      2.766668   -1.815144    1.908047
C      3.507445   -2.643298    1.070777
C      3.169505   -2.740528   -0.275592
C      2.098802   -1.996200   -0.785597
O      1.791253   -2.157461   -2.116039
C      2.629403   -1.322876   -2.916718
H      2.958692    2.828000   -2.533183
H      1.894468    4.089863   -1.903695
H      3.203365    3.384493   -0.874550
H      1.495370    4.388785    0.370563
H      0.116426    4.651827    2.365132
H     -1.381370    2.819828    3.105784
H     -1.489850    0.728733    1.851602
H     -0.543495   -2.841583    0.803609
H     -2.532415   -4.004167    1.590257
H     -4.787048   -3.049540    1.200297
H     -5.041133   -0.935863    0.008104
H     -4.108264    2.107356   -1.691937
H     -4.893248    0.527316   -1.784669
H     -4.731430    1.388521   -0.203204
H      1.118567   -0.470327    2.093962
H      3.023851   -1.735195    2.961235
H      4.341790   -3.215709    1.466452
H      3.733231   -3.398489   -0.930631
H      3.657522   -1.700234   -2.926220
H      2.249205   -1.353042   -3.942186
H      2.612312   -0.280562   -2.579799
*