! RI BP86 def2-SVP D3BJ TIGHTSCF Opt
%pal
nprocs 6
end

* xyz 0 1
C     -2.349430   -3.813781    0.889988
C     -1.405473   -3.995163   -0.118065
C     -0.720100   -2.896262   -0.635960
C     -0.968399   -1.601937   -0.150508
C     -1.925528   -1.433211    0.861043
C     -2.610709   -2.534757    1.377853
P     -0.025479   -0.218202   -0.854162
O      0.157391   -0.448939   -2.345737
C     -0.967684    1.281194   -0.511183
C     -0.708224    2.101132    0.596666
C     -1.478876    3.242222    0.828735
C     -2.514820    3.576220   -0.041665
C     -2.781042    2.772941   -1.148024
C     -2.011649    1.633279   -1.381776
C      1.551939   -0.151631    0.020652
C      1.693593   -0.720634    1.300982
C      2.927833   -0.729040    1.956489
C      4.048446   -0.176373    1.344999
C      3.932345    0.398255    0.081831
C      2.690203    0.426760   -0.570317
C      2.658982    1.086599   -1.888825
O      3.487089    0.968638   -2.770303
O      1.641437    1.957210   -1.958456
H     -2.887079   -4.669391    1.290715
H     -1.206402   -4.991013   -0.506050
H      0.009604   -3.043375   -1.431308
H     -2.151951   -0.446589    1.256872
H     -3.353807   -2.394458    2.159177
H      0.097744    1.866266    1.286398
H     -1.267400    3.875283    1.687007
H     -3.111216    4.466909    0.138833
H     -3.584460    3.035114   -1.831720
H     -2.219121    1.011838   -2.251958
H      0.845179   -1.180321    1.802953
H      3.015748   -1.181558    2.941972
H      5.011561   -0.193660    1.849241
H      4.809670    0.831421   -0.395732
H      1.670085    2.289011   -2.880657
*