! RI BP86 def2-SVP D3BJ TIGHTSCF Opt
%pal
nprocs 6
end

* xyz 0 1
C      5.450703   -1.106103    1.825917
C      4.914783   -1.390827    0.631962
C      3.526433   -1.102619    0.248049
C      3.243500   -0.803808   -1.089377
C      1.931959   -0.551049   -1.501181
C      0.870078   -0.600460   -0.586981
C      1.151000   -0.919570    0.747530
C      2.464878   -1.171998    1.158110
P     -0.797860   -0.244856   -1.175824
O     -1.002964   -0.794002   -2.578575
C     -1.968918   -0.982112   -0.018858
C     -2.532156   -0.265919    1.047414
C     -3.422912   -0.886385    1.925788
C     -3.761139   -2.226582    1.748584
C     -3.212402   -2.949012    0.691706
C     -2.322730   -2.330396   -0.186716
C     -1.031123    1.543601   -1.145014
C     -2.020421    2.107546   -1.966232
C     -2.247893    3.483804   -1.966419
C     -1.487628    4.314167   -1.146336
C     -0.499305    3.769712   -0.328581
C     -0.270745    2.392139   -0.327062
H      4.890609   -0.622371    2.618962
H      6.490469   -1.343402    2.029551
H      5.537655   -1.851601   -0.131855
H      4.042609   -0.758908   -1.826354
H      1.732477   -0.319325   -2.546825
H      0.354697   -0.983766    1.484771
H      2.644796   -1.438060    2.197118
H     -2.287424    0.781243    1.205910
H     -3.857159   -0.322115    2.747545
H     -4.457248   -2.707099    2.431346
H     -3.479763   -3.992819    0.547586
H     -1.902521   -2.898312   -1.015943
H     -2.612958    1.463788   -2.615228
H     -3.015100    3.906919   -2.609954
H     -1.661949    5.387121   -1.148721
H      0.097573    4.420054    0.306296
H      0.508097    1.993380    0.317890
*