! RIJCOSX M062X def2-TZVP D3ZERO NormalSCF
%pal
nprocs 6
end

* xyz 0 1
  C          -1.57037256683028      2.73781183728659     -2.33228087372056
  C          -1.73375986871660      1.83707527580790     -1.11843106113723
  O          -1.34523674881880      0.50409346499908     -1.47371109922423
  Si         -1.85676592309105     -0.91189746223692     -0.76803553412360
  C          -0.43969250449351     -2.01319400689560     -0.19837911965433
  C           0.44437159141746     -1.62720446290064      0.99600648616992
  P           1.13902236861076      0.08062163535387      0.98080847357808
  O           0.14466752621424      1.18448765150269      1.32849857755006
  C           2.50509066147035      0.02935271182651      2.20435035907534
  C           3.63194078405724     -0.80795312393611      2.07617503605588
  C           4.63073194015250     -0.79406310424154      3.06142899162886
  C           4.50971258023782      0.05734532922999      4.17443902773565
  C           3.39118124487887      0.89821641654113      4.29930308066730
  C           2.38897463564596      0.88696051921276      3.31565257636774
  C           1.92557184133062      0.31709550755473     -0.65072986816804
  C           1.87477748452939      1.61220235691764     -1.20119768979063
  C           2.46185463833522      1.86745924240405     -2.44895473643467
  C           3.09701023149345      0.83090117851779     -3.15422624677235
  C           3.14850093580826     -0.46289741894089     -2.60853286818665
  C           2.56491935155056     -0.72122272745538     -1.35806117367338
  O          -2.53838534438473     -1.85231535956462     -1.97322002580283
  C          -3.40686509396487     -1.33576903032584     -2.97811503013769
  C          -4.81281456580691     -1.06201943342633     -2.44936349013478
  O          -2.98923097301901     -0.53633013449276      0.39972136627977
  C          -3.06025571777297     -0.96854785127097      1.75327163774529
  C          -2.72210690107376      0.17020383681570      2.70702649776211
  H          -2.22844289531566      2.41271663377477     -3.16436440989469
  H          -1.82474282858569      3.78695959833857     -2.07583102326619
  H          -0.52407913943403      2.70991615347292     -2.69841563471820
  H          -2.78568072892272      1.84563757644950     -0.75669957057431
  H          -1.09843526190402      2.16827428159082     -0.27017470297437
  H           0.18129220164553     -2.12888339406793     -1.11238440971784
  H          -0.88158612805149     -3.01778944081122     -0.02157410044219
  H           1.29678651197714     -2.33138238668096      1.11238485129505
  H          -0.11113433258602     -1.66488076964294      1.95738317917970
  H           3.74287089942851     -1.46406551493016      1.19881409838370
  H           5.51114342086058     -1.44687732175348      2.95901976601700
  H           5.29553994063507      0.06746415399603      4.94535294386429
  H           3.29965600324811      1.56930506308167      5.16721081938875
  H           1.50598384102450      1.54143146203505      3.38143124021142
  H           1.35733553939025      2.40541698429420     -0.64130183025549
  H           2.41825232213354      2.88020123346787     -2.87807809781258
  H           3.55108783904708      1.03067038224905     -4.13684919373011
  H           3.63988030457482     -1.27714272506554     -3.16264650014983
  H           2.60162335320020     -1.74149156013475     -0.94547974403201
  H          -3.44321001035133     -2.09158610440976     -3.79292997617640
  H          -2.97171313918303     -0.40591403315805     -3.41309386829824
  H          -4.79431326560430     -0.29091374828352     -1.65266931255097
  H          -5.25195233836803     -1.98279786100226     -2.01436236969254
  H          -5.47712575834781     -0.70844094454820     -3.26527130752541
  H          -2.37780328469429     -1.83461241844518      1.92841901490750
  H          -4.09181772203398     -1.34538795824694      1.93542111870109
  H          -3.43411228840798      1.00909993113123      2.56907478287223
  H          -1.70144833796328      0.55431173341489      2.50211553468902
  H          -2.78669332517190     -0.16965385439853      3.76205340864665
*