! RI BP86 def2-SVP D3BJ TIGHTSCF Opt
%pal
nprocs 6
end

* xyz 0 1
C      5.494024   -0.323408    0.783766
N      4.534194    0.110794   -0.230196
C      5.033850    1.102034   -1.182565
C      3.168862    0.112506    0.083372
C      2.661030   -0.512989    1.234582
C      1.291896   -0.527337    1.537574
C      0.361655    0.075683    0.688001
C      0.838856    0.693604   -0.468201
C      2.211705    0.703129   -0.760672
P     -1.386589    0.002231    1.113310
O     -1.585302    0.142079    2.614225
C     -2.235040    1.324898    0.226661
C     -2.833339    1.131591   -1.027111
C     -3.466237    2.190632   -1.681107
C     -3.509122    3.452177   -1.090622
C     -2.921979    3.657716    0.155649
C     -2.289629    2.600592    0.810243
C     -2.042480   -1.571549    0.523238
C     -1.423868   -2.317035   -0.491020
C     -1.979316   -3.523166   -0.923061
C     -3.156300   -3.997662   -0.347264
C     -3.779329   -3.269634    0.663635
C     -3.225351   -2.064851    1.096613
H      5.461024    0.329227    1.663135
H      6.517784   -0.302596    0.393174
H      5.311308   -1.360334    1.085770
H      4.807207    2.120431   -0.847802
H      6.120997    1.028442   -1.299902
H      4.613749    0.939771   -2.180798
H      3.319609   -1.009548    1.940639
H      0.951765   -1.016300    2.449570
H      0.158000    1.174454   -1.165700
H      2.509410    1.188351   -1.685455
H     -2.815593    0.156672   -1.507667
H     -3.930106    2.030313   -2.651323
H     -4.005026    4.274704   -1.599635
H     -2.959441    4.639400    0.621054
H     -1.838248    2.765177    1.787925
H     -0.502987   -1.971365   -0.954151
H     -1.490119   -4.095872   -1.707269
H     -3.585217   -4.938494   -0.682537
H     -4.693863   -3.641064    1.118993
H     -3.712447   -1.503404    1.892934
*