! RIJCOSX M062X def2-TZVP D3ZERO NormalSCF
%pal
nprocs 6
end

* xyz 0 1
  C          -0.25077182709994      2.13851349836831     -0.49675790556995
  C          -0.00827592670010      3.47754135318670     -0.83647038435491
  C           0.80943305500639      4.25886519984658     -0.00106918188547
  C           1.37597352718764      3.72353490864948      1.16983850672315
  C           1.12808047279697      2.38414909105656      1.49804549290732
  C           0.32539529107996      1.58146170302109      0.66223666029815
  P           0.09516107339165     -0.16077037810526      1.17405035600025
  O           0.21763941683622     -0.36550440498635      2.67338893662872
  C          -1.53765487401835     -0.65243088196989      0.50917231904623
  C          -2.63068439244258     -0.56536607724462      1.39536548819633
  C          -3.92060159843481     -0.90381033297115      0.96594722849653
  C          -4.11061580612162     -1.33775128033775     -0.35853292563659
  C          -3.02910032079989     -1.44770787601938     -1.25024382691173
  C          -1.74206893122829     -1.10713604396160     -0.80869504609306
  Cl         -5.71638594792054     -1.76112259029033     -0.90220556714966
  C           1.32353031386483     -1.11767190368599      0.21191573771119
  C           1.80698731601969     -0.72255850185981     -1.05129976662168
  C           2.73348340328242     -1.52092278622309     -1.73791786076265
  C           3.17992769736045     -2.71544453530043     -1.14563400024538
  C           2.72191311604590     -3.11430435088587      0.12309976970984
  C           1.79540918312502     -2.30937083921850      0.79892818006564
  Cl          4.33431778622774     -3.71445175372565     -1.99577527183371
  Cl          1.11538167490849      5.92773933432725     -0.41878066581012
  H          -0.91083453133079      1.53130070153731     -1.13535957346461
  H          -0.45432202615401      3.92342827237451     -1.73648689127931
  H           1.99899969613685      4.35909520148568      1.81473504962333
  H           1.54416645850307      1.94684939910482      2.41891075154822
  H          -2.45277369349575     -0.24283553283293      2.43297698039229
  H          -4.77982258647291     -0.84112527743255      1.64843638569261
  H          -3.20008085022966     -1.80641286837961     -2.27487621766071
  H          -0.88949380933731     -1.21561930693887     -1.49667303151074
  H           1.47359957687587      0.22540415481216     -1.50108752997195
  H           3.11952064411790     -1.22184306667077     -2.72245107743752
  H           3.09780092890747     -4.04463980495986      0.57161520029261
  H           1.43676549011202     -2.58908342377022      1.80165568086735
*